*HEADING
2D plate with hole - plate_000
*NODE
1, 121.150314, 66.761397, 0.0
2, 0.000000, 0.000000, 0.0
3, 153.245106, 0.000000, 0.0
4, 0.000000, 94.471144, 0.0
5, 153.245106, 94.471144, 0.0
6, 120.781953, 69.205311, 0.0
7, 119.709601, 71.432073, 0.0
8, 118.028541, 73.243825, 0.0
9, 115.888143, 74.479585, 0.0
10, 113.478589, 75.029550, 0.0
11, 111.013981, 74.844853, 0.0
12, 108.713308, 73.941905, 0.0
13, 106.780997, 72.400938, 0.0
14, 105.388740, 70.358873, 0.0
15, 104.660247, 67.997156, 0.0
16, 104.660247, 65.525637, 0.0
17, 105.388740, 63.163920, 0.0
18, 106.780997, 61.121855, 0.0
19, 108.713308, 59.580888, 0.0
20, 111.013981, 58.677940, 0.0
21, 113.478589, 58.493243, 0.0
22, 115.888143, 59.043208, 0.0
23, 118.028541, 60.278968, 0.0
24, 119.709601, 62.090720, 0.0
25, 120.781953, 64.317482, 0.0
26, 7.662255, 0.000000, 0.0
27, 15.324511, 0.000000, 0.0
28, 22.986766, 0.000000, 0.0
29, 30.649021, 0.000000, 0.0
30, 38.311277, 0.000000, 0.0
31, 45.973532, 0.000000, 0.0
32, 53.635787, 0.000000, 0.0
33, 61.298042, 0.000000, 0.0
34, 68.960298, 0.000000, 0.0
35, 76.622553, 0.000000, 0.0
36, 84.284808, 0.000000, 0.0
37, 91.947064, 0.000000, 0.0
38, 99.609319, 0.000000, 0.0
39, 107.271574, 0.000000, 0.0
40, 114.933830, 0.000000, 0.0
41, 122.596085, 0.000000, 0.0
42, 130.258340, 0.000000, 0.0
43, 137.920596, 0.000000, 0.0
44, 145.582851, 0.000000, 0.0
45, 0.000000, 86.598549, 0.0
46, 0.000000, 78.725953, 0.0
47, 0.000000, 70.853358, 0.0
48, 0.000000, 62.980763, 0.0
49, 0.000000, 55.108167, 0.0
50, 0.000000, 47.235572, 0.0
51, 0.000000, 39.362977, 0.0
52, 0.000000, 31.490381, 0.0
53, 0.000000, 23.617786, 0.0
54, 0.000000, 15.745191, 0.0
55, 0.000000, 7.872595, 0.0
56, 153.245106, 7.872595, 0.0
57, 153.245106, 15.745191, 0.0
58, 153.245106, 23.617786, 0.0
59, 153.245106, 31.490381, 0.0
60, 153.245106, 39.362977, 0.0
61, 153.245106, 47.235572, 0.0
62, 153.245106, 55.108167, 0.0
63, 153.245106, 62.980763, 0.0
64, 153.245106, 70.853358, 0.0
65, 153.245106, 78.725953, 0.0
66, 153.245106, 86.598549, 0.0
67, 145.582851, 94.471144, 0.0
68, 137.920596, 94.471144, 0.0
69, 130.258340, 94.471144, 0.0
70, 122.596085, 94.471144, 0.0
71, 114.933830, 94.471144, 0.0
72, 107.271574, 94.471144, 0.0
73, 99.609319, 94.471144, 0.0
74, 91.947064, 94.471144, 0.0
75, 84.284808, 94.471144, 0.0
76, 76.622553, 94.471144, 0.0
77, 68.960298, 94.471144, 0.0
78, 61.298042, 94.471144, 0.0
79, 53.635787, 94.471144, 0.0
80, 45.973532, 94.471144, 0.0
81, 38.311277, 94.471144, 0.0
82, 30.649021, 94.471144, 0.0
83, 22.986766, 94.471144, 0.0
84, 15.324511, 94.471144, 0.0
85, 7.662255, 94.471144, 0.0
86, 103.072960, 63.652896, 0.0
87, 106.419709, 58.662707, 0.0
88, 65.286509, 6.533713, 0.0
89, 115.221917, 56.738502, 0.0
90, 65.201663, 88.032534, 0.0
91, 88.115936, 6.635708, 0.0
92, 40.759381, 88.477720, 0.0
93, 41.629081, 7.222989, 0.0
94, 110.971293, 7.016296, 0.0
95, 6.044857, 41.928355, 0.0
96, 103.021618, 69.705908, 0.0
97, 120.228799, 59.213889, 0.0
98, 146.759329, 34.426160, 0.0
99, 122.174336, 71.264021, 0.0
100, 123.092282, 65.234171, 0.0
101, 6.817868, 66.917060, 0.0
102, 146.699803, 51.566762, 0.0
103, 106.396325, 74.840868, 0.0
104, 87.859836, 88.212271, 0.0
105, 117.676000, 75.824002, 0.0
106, 7.392613, 27.954679, 0.0
107, 146.472563, 75.369839, 0.0
108, 126.518667, 5.885177, 0.0
109, 27.868410, 88.223185, 0.0
110, 27.525175, 6.006894, 0.0
111, 112.590061, 77.306926, 0.0
112, 145.611881, 20.489459, 0.0
113, 126.122504, 87.349858, 0.0
114, 104.376018, 88.561525, 0.0
115, 5.947403, 82.662753, 0.0
116, 6.333373, 11.723258, 0.0
117, 141.751723, 87.835436, 0.0
118, 141.355126, 7.225017, 0.0
119, 123.458676, 67.673986, 0.0
120, 125.767127, 66.641797, 0.0
121, 125.026860, 63.029970, 0.0
122, 129.674971, 64.736010, 0.0
123, 129.736631, 69.602532, 0.0
124, 127.918872, 59.358177, 0.0
125, 134.991070, 60.962239, 0.0
126, 133.490372, 54.471414, 0.0
127, 126.991389, 52.841868, 0.0
128, 131.577495, 47.487373, 0.0
129, 123.584843, 46.816934, 0.0
130, 129.192091, 40.169812, 0.0
131, 121.378050, 38.693600, 0.0
132, 126.825099, 32.509044, 0.0
133, 119.020249, 30.773346, 0.0
134, 113.637435, 36.600634, 0.0
135, 111.222071, 28.981039, 0.0
136, 105.769093, 34.827517, 0.0
137, 103.406741, 27.234573, 0.0
138, 98.002912, 33.143130, 0.0
139, 100.412517, 42.022991, 0.0
140, 92.614548, 39.057914, 0.0
141, 90.199215, 31.428884, 0.0
142, 84.802088, 37.334277, 0.0
143, 87.021952, 44.784337, 0.0
144, 79.371441, 43.208831, 0.0
145, 81.779727, 50.831155, 0.0
146, 73.993602, 49.131644, 0.0
147, 71.584307, 41.508404, 0.0
148, 66.189941, 47.416099, 0.0
149, 63.777722, 39.790185, 0.0
150, 58.380115, 45.694915, 0.0
151, 55.966869, 38.068062, 0.0
152, 50.568550, 43.972142, 0.0
153, 52.982224, 51.599387, 0.0
154, 45.170155, 49.876152, 0.0
155, 42.756535, 42.248957, 0.0
156, 76.410690, 56.762012, 0.0
157, 37.358022, 48.152859, 0.0
158, 39.771665, 55.780074, 0.0
159, 34.944392, 40.525654, 0.0
160, 82.388403, 29.707015, 0.0
161, 84.223443, 58.485872, 0.0
162, 31.959495, 54.056748, 0.0
163, 40.342933, 34.621778, 0.0
164, 32.530764, 32.898452, 0.0
165, 78.832566, 64.396757, 0.0
166, 34.373135, 61.683961, 0.0
167, 42.185313, 63.407296, 0.0
168, 71.019016, 62.672167, 0.0
169, 61.365474, 32.164245, 0.0
170, 86.672086, 65.194112, 0.0
171, 26.560959, 59.960629, 0.0
172, 26.991012, 38.869598, 0.0
173, 37.929303, 26.994574, 0.0
174, 30.117127, 25.271241, 0.0
175, 28.974598, 67.587841, 0.0
176, 73.433798, 70.300425, 0.0
177, 65.621582, 68.577056, 0.0
178, 116.622504, 23.069822, 0.0
179, 91.152725, 59.129274, 0.0
180, 87.786936, 23.803129, 0.0
181, 79.975095, 22.080157, 0.0
182, 53.553626, 30.441212, 0.0
183, 58.952134, 24.537306, 0.0
184, 51.140005, 22.814017, 0.0
185, 24.150710, 52.336516, 0.0
186, 18.826690, 58.213337, 0.0
187, 35.495108, 19.460558, 0.0
188, 107.915931, 57.081727, 0.0
189, 105.787410, 56.396247, 0.0
190, 108.057083, 53.990584, 0.0
191, 103.468694, 58.503486, 0.0
192, 103.530962, 54.174162, 0.0
193, 104.019361, 73.387767, 0.0
194, 103.810908, 75.603017, 0.0
195, 106.158783, 77.754093, 0.0
196, 101.046423, 74.201401, 0.0
197, 101.220336, 77.640844, 0.0
198, 96.843083, 75.251948, 0.0
199, 117.892847, 57.752128, 0.0
200, 117.199449, 55.142143, 0.0
201, 114.633429, 53.729611, 0.0
202, 120.079117, 55.760746, 0.0
203, 121.512101, 73.337470, 0.0
204, 124.376245, 73.371187, 0.0
205, 122.742348, 75.874893, 0.0
206, 127.393283, 76.292344, 0.0
207, 115.306891, 76.786888, 0.0
208, 117.140663, 78.383748, 0.0
209, 114.778419, 79.803608, 0.0
210, 111.454066, 80.446038, 0.0
211, 117.780082, 81.914320, 0.0
212, 101.829953, 67.241034, 0.0
213, 66.764306, 26.260635, 0.0
214, 63.207938, 60.949839, 0.0
215, 57.809581, 66.853884, 0.0
216, 60.101589, 74.369876, 0.0
217, 52.390830, 72.739279, 0.0
218, 54.780594, 80.480442, 0.0
219, 56.486118, 17.147819, 0.0
220, 105.011766, 48.503801, 0.0
221, 99.760272, 69.446372, 0.0
222, 98.057742, 66.083903, 0.0
223, 136.434955, 67.994851, 0.0
224, 141.462173, 62.251316, 0.0
225, 134.288849, 34.310571, 0.0
226, 132.191413, 26.572227, 0.0
227, 16.132772, 51.003631, 0.0
228, 27.614662, 18.046699, 0.0
229, 22.290145, 23.615019, 0.0
230, 19.891312, 15.920696, 0.0
231, 11.744642, 56.561033, 0.0
232, 96.315707, 80.480350, 0.0
233, 90.082251, 76.991190, 0.0
234, 99.411638, 49.562001, 0.0
235, 111.548365, 49.798007, 0.0
236, 47.160041, 78.501064, 0.0
237, 48.011552, 13.930134, 0.0
238, 125.214704, 70.275051, 0.0
239, 95.011865, 70.352294, 0.0
240, 117.872014, 51.236089, 0.0
241, 111.368022, 89.082763, 0.0
242, 140.330639, 28.468489, 0.0
243, 115.987386, 44.223875, 0.0
244, 85.614037, 14.724137, 0.0
245, 93.185813, 17.899614, 0.0
246, 77.156487, 14.204625, 0.0
247, 112.678755, 56.279682, 0.0
248, 14.492772, 21.824573, 0.0
249, 16.321323, 29.557524, 0.0
250, 54.124924, 9.282944, 0.0
251, 11.231029, 35.986815, 0.0
252, 137.671080, 20.643299, 0.0
253, 129.782378, 19.207000, 0.0
254, 135.276480, 13.010091, 0.0
255, 19.037812, 37.359183, 0.0
256, 123.457736, 57.266814, 0.0
257, 99.698044, 56.462721, 0.0
258, 132.947240, 74.357795, 0.0
259, 130.862886, 80.987909, 0.0
260, 138.804604, 79.821271, 0.0
261, 136.769616, 41.948526, 0.0
262, 124.638762, 80.446803, 0.0
263, 108.203955, 42.367379, 0.0
264, 33.187497, 11.775042, 0.0
265, 124.415823, 24.880718, 0.0
266, 121.814462, 17.418967, 0.0
267, 114.113004, 15.353648, 0.0
268, 108.815344, 21.314901, 0.0
269, 106.161603, 13.584342, 0.0
270, 95.598546, 25.512505, 0.0
271, 72.162917, 20.356823, 0.0
272, 76.983468, 35.605079, 0.0
273, 74.575368, 27.982937, 0.0
274, 64.266189, 19.016635, 0.0
275, 44.620144, 71.004639, 0.0
276, 39.323644, 76.475420, 0.0
277, 36.810845, 69.229035, 0.0
278, 31.437339, 75.012900, 0.0
279, 23.608795, 73.346725, 0.0
280, 34.598675, 82.840954, 0.0
281, 55.395944, 59.226673, 0.0
282, 88.866236, 51.973663, 0.0
283, 60.793819, 53.322187, 0.0
284, 82.622659, 72.520016, 0.0
285, 75.659934, 77.795260, 0.0
286, 67.614030, 75.849616, 0.0
287, 69.175938, 33.886009, 0.0
288, 68.602501, 55.042325, 0.0
289, 43.184718, 20.989974, 0.0
290, 45.717618, 28.701113, 0.0
291, 49.997611, 65.122532, 0.0
292, 29.526274, 46.444362, 0.0
293, 47.583819, 57.502019, 0.0
294, 48.151022, 36.342211, 0.0
295, 24.548030, 31.261836, 0.0
296, 21.258204, 65.811873, 0.0
297, 14.618570, 71.854455, 0.0
298, 17.808139, 80.079376, 0.0
299, 101.009659, 19.565701, 0.0
300, 98.632509, 12.437430, 0.0
301, 109.639039, 77.417952, 0.0
302, 122.305120, 61.298463, 0.0
303, 103.704936, 61.340145, 0.0
304, 101.236124, 60.855060, 0.0
305, 119.716391, 8.392020, 0.0
306, 21.742392, 44.933819, 0.0
307, 145.121569, 42.994874, 0.0
308, 6.843380, 19.494875, 0.0
309, 6.817868, 74.789656, 0.0
310, 118.598097, 88.460828, 0.0
311, 19.445639, 87.789705, 0.0
312, 80.410997, 88.353738, 0.0
313, 48.851577, 86.602183, 0.0
314, 57.612441, 87.583059, 0.0
315, 19.283866, 7.929239, 0.0
316, 72.796394, 88.589133, 0.0
317, 72.791425, 6.635708, 0.0
318, 80.453681, 6.635708, 0.0
319, 134.286776, 87.489460, 0.0
320, 139.007606, 49.440274, 0.0
321, 113.927349, 84.151824, 0.0
322, 103.070748, 6.454494, 0.0
323, 13.425937, 63.521217, 0.0
324, 111.467700, 53.374697, 0.0
325, 40.301591, 14.675739, 0.0
326, 11.382226, 6.392446, 0.0
327, 11.937302, 86.724845, 0.0
328, 146.810152, 82.686083, 0.0
329, 146.864152, 12.141271, 0.0
330, 96.296903, 87.270017, 0.0
331, 69.237644, 13.279049, 0.0
332, 26.137013, 80.451119, 0.0
333, 145.511738, 67.415471, 0.0
334, 6.929378, 50.641780, 0.0
335, 83.381242, 81.445090, 0.0
336, 133.066100, 6.531723, 0.0
337, 103.559915, 82.042590, 0.0
338, 147.662690, 27.657206, 0.0
339, 13.519707, 43.642264, 0.0
340, 62.147519, 81.465077, 0.0
341, 147.115996, 59.147576, 0.0
342, 95.599153, 6.181555, 0.0
343, 13.037821, 13.880848, 0.0
344, 61.414236, 11.827038, 0.0
345, 34.260410, 5.000985, 0.0
346, 93.899552, 46.414432, 0.0
347, 34.437353, 89.696830, 0.0
348, 140.461170, 56.306597, 0.0
349, 48.582032, 5.929823, 0.0
350, 120.119076, 77.906299, 0.0
351, 107.949242, 80.352612, 0.0
352, 124.768617, 60.196034, 0.0
353, 70.007015, 82.553947, 0.0
354, 5.575138, 59.133340, 0.0
355, 127.296386, 12.585642, 0.0
356, 92.809001, 65.468762, 0.0
357, 96.975291, 60.771128, 0.0
358, 92.229489, 11.575689, 0.0
359, 108.772435, 84.106226, 0.0
360, 11.425856, 79.222217, 0.0
361, 141.300040, 14.888832, 0.0
362, 140.252687, 73.413706, 0.0
363, 59.151900, 5.528739, 0.0
364, 140.428788, 36.536250, 0.0
365, 128.114574, 72.761518, 0.0
366, 147.673134, 5.630631, 0.0
367, 147.673134, 88.840514, 0.0
368, 122.397020, 52.784490, 0.0
369, 5.109392, 88.985687, 0.0
370, 5.537733, 5.597305, 0.0
371, 4.750249, 35.384823, 0.0
372, 25.293915, 12.051122, 0.0
373, 89.266385, 70.981173, 0.0
374, 95.000581, 54.052203, 0.0
375, 121.421771, 84.394266, 0.0
376, 104.004847, 71.499347, 0.0
377, 101.651980, 71.663619, 0.0
378, 98.862725, 72.183127, 0.0
379, 105.163833, 60.115885, 0.0
380, 122.360212, 63.337673, 0.0
381, 119.604455, 74.511735, 0.0
382, 122.675441, 69.409998, 0.0
383, 109.974460, 56.497586, 0.0
384, 108.168390, 75.746944, 0.0
385, 102.875193, 65.686776, 0.0
386, 100.695809, 64.224338, 0.0
387, 42.161257, 82.285032, 0.0
388, 76.451116, 83.747434, 0.0
389, 90.787188, 82.879783, 0.0
*ELEMENT, TYPE=CPS3, ELSET=EALL
1, 244, 318, 91
2, 327, 360, 298
3, 311, 327, 298
4, 334, 339, 227
5, 235, 240, 201
6, 139, 263, 220
7, 242, 252, 112
8, 303, 304, 191
9, 120, 238, 119
10, 248, 249, 106
11, 220, 234, 139
12, 93, 349, 237
13, 246, 318, 244
14, 41, 305, 40
15, 233, 335, 284
16, 307, 320, 261
17, 237, 325, 93
18, 122, 223, 123
19, 95, 339, 334
20, 297, 309, 101
21, 249, 251, 106
22, 357, 386, 222
23, 112, 338, 242
24, 315, 343, 326
25, 232, 337, 330
26, 230, 343, 315
27, 330, 337, 114
28, 284, 335, 285
29, 298, 332, 311
30, 333, 362, 223
31, 224, 333, 223
32, 93, 325, 264
33, 199, 202, 97
34, 89, 247, 201
35, 207, 209, 111
36, 264, 345, 93
37, 201, 324, 235
38, 247, 383, 324
39, 218, 313, 236
40, 101, 323, 297
41, 129, 368, 240
42, 101, 354, 323
43, 102, 320, 307
44, 311, 332, 109
45, 126, 348, 125
46, 117, 319, 260
47, 284, 373, 233
48, 23, 199, 97
49, 89, 199, 22
50, 21, 247, 89
51, 105, 207, 9
52, 10, 207, 111
53, 256, 302, 97
54, 210, 301, 111
55, 131, 243, 134
56, 254, 355, 336
57, 108, 305, 41
58, 40, 305, 94
59, 313, 387, 236
60, 323, 354, 231
61, 125, 348, 224
62, 124, 352, 256
63, 195, 197, 194
64, 251, 339, 95
65, 243, 263, 134
66, 267, 269, 94
67, 231, 334, 227
68, 91, 358, 244
69, 336, 355, 108
70, 106, 308, 248
71, 255, 295, 172
72, 240, 243, 129
73, 191, 304, 257
74, 261, 364, 307
75, 15, 385, 16
76, 11, 384, 12
77, 1, 382, 6
78, 17, 379, 18
79, 19, 383, 20
80, 7, 381, 8
81, 24, 380, 25
82, 13, 376, 14
83, 189, 192, 190
84, 94, 305, 267
85, 260, 319, 259
86, 280, 387, 92
87, 242, 338, 98
88, 317, 318, 246
89, 305, 355, 266
90, 92, 347, 280
91, 125, 223, 122
92, 107, 328, 260
93, 350, 375, 211
94, 98, 364, 242
95, 249, 295, 255
96, 129, 243, 131
97, 267, 305, 266
98, 193, 376, 13
99, 303, 379, 17
100, 302, 380, 24
101, 203, 381, 7
102, 119, 382, 1
103, 188, 383, 19
104, 301, 384, 11
105, 212, 385, 15
106, 255, 339, 251
107, 92, 387, 313
108, 249, 255, 251
109, 193, 377, 376
110, 246, 331, 317
111, 212, 386, 385
112, 260, 328, 117
113, 124, 256, 127
114, 172, 306, 255
115, 357, 374, 257
116, 250, 349, 32
117, 297, 360, 309
118, 115, 360, 327
119, 118, 361, 254
120, 235, 263, 243
121, 218, 314, 313
122, 221, 239, 222
123, 32, 363, 250
124, 233, 239, 198
125, 202, 368, 256
126, 304, 386, 357
127, 108, 355, 305
128, 237, 349, 250
129, 315, 372, 230
130, 220, 263, 235
131, 254, 336, 118
132, 239, 373, 356
133, 235, 243, 240
134, 261, 320, 128
135, 109, 332, 280
136, 269, 322, 94
137, 130, 261, 128
138, 270, 299, 137
139, 137, 299, 268
140, 245, 300, 299
141, 137, 268, 135
142, 245, 299, 270
143, 178, 267, 266
144, 335, 388, 285
145, 178, 266, 265
146, 135, 268, 178
147, 226, 265, 253
148, 123, 238, 120
149, 265, 266, 253
150, 132, 265, 226
151, 178, 268, 267
152, 268, 269, 267
153, 133, 265, 132
154, 180, 270, 141
155, 245, 270, 180
156, 141, 270, 138
157, 213, 274, 271
158, 271, 273, 213
159, 219, 274, 183
160, 183, 274, 213
161, 273, 287, 213
162, 272, 287, 273
163, 147, 272, 144
164, 147, 287, 272
165, 144, 272, 142
166, 181, 273, 271
167, 160, 273, 181
168, 276, 280, 278
169, 166, 277, 175
170, 167, 277, 166
171, 276, 278, 277
172, 275, 277, 167
173, 161, 282, 179
174, 277, 278, 175
175, 217, 291, 215
176, 167, 291, 275
177, 153, 283, 281
178, 281, 293, 153
179, 148, 283, 150
180, 215, 291, 281
181, 275, 291, 217
182, 150, 283, 153
183, 145, 282, 161
184, 154, 293, 158
185, 148, 288, 283
186, 278, 279, 175
187, 153, 293, 154
188, 158, 293, 167
189, 146, 288, 148
190, 291, 293, 281
191, 214, 288, 168
192, 283, 288, 214
193, 168, 288, 156
194, 213, 287, 169
195, 177, 286, 216
196, 284, 285, 176
197, 176, 286, 177
198, 165, 284, 176
199, 169, 287, 149
200, 184, 289, 237
201, 285, 286, 176
202, 184, 290, 289
203, 182, 290, 184
204, 182, 294, 290
205, 184, 219, 183
206, 151, 294, 182
207, 215, 281, 214
208, 290, 294, 163
209, 162, 292, 157
210, 173, 290, 163
211, 166, 175, 171
212, 182, 184, 183
213, 155, 294, 152
214, 163, 294, 155
215, 158, 162, 157
216, 157, 292, 159
217, 185, 292, 162
218, 186, 231, 227
219, 218, 236, 217
220, 164, 174, 173
221, 182, 183, 169
222, 236, 275, 217
223, 152, 294, 151
224, 166, 171, 162
225, 177, 214, 168
226, 183, 213, 169
227, 276, 277, 275
228, 154, 158, 157
229, 174, 187, 173
230, 177, 216, 215
231, 150, 152, 151
232, 153, 154, 152
233, 154, 157, 155
234, 159, 172, 164
235, 176, 177, 168
236, 171, 186, 185
237, 229, 230, 228
238, 159, 163, 155
239, 159, 292, 172
240, 164, 173, 163
241, 177, 215, 214
242, 184, 237, 219
243, 216, 217, 215
244, 236, 276, 275
245, 174, 228, 187
246, 229, 248, 230
247, 151, 182, 169
248, 154, 155, 152
249, 157, 159, 155
250, 159, 164, 163
251, 171, 185, 162
252, 167, 293, 291
253, 289, 290, 173
254, 174, 229, 228
255, 228, 264, 187
256, 229, 249, 248
257, 158, 166, 162
258, 172, 295, 164
259, 186, 227, 185
260, 281, 283, 214
261, 216, 218, 217
262, 237, 250, 219
263, 158, 167, 166
264, 187, 289, 173
265, 164, 295, 174
266, 151, 169, 149
267, 150, 153, 152
268, 170, 284, 165
269, 174, 295, 229
270, 229, 295, 249
271, 150, 151, 149
272, 161, 179, 170
273, 165, 176, 168
274, 148, 150, 149
275, 161, 170, 165
276, 165, 168, 156
277, 149, 287, 147
278, 148, 149, 147
279, 161, 165, 156
280, 156, 288, 146
281, 181, 271, 246
282, 145, 161, 156
283, 146, 148, 147
284, 279, 298, 297
285, 146, 147, 144
286, 145, 156, 146
287, 244, 245, 180
288, 181, 246, 244
289, 279, 296, 175
290, 175, 296, 171
291, 279, 297, 296
292, 143, 282, 145
293, 145, 146, 144
294, 181, 244, 180
295, 171, 296, 186
296, 143, 145, 144
297, 160, 181, 180
298, 272, 273, 160
299, 160, 180, 141
300, 143, 144, 142
301, 142, 272, 160
302, 140, 143, 142
303, 142, 160, 141
304, 140, 142, 141
305, 140, 141, 138
306, 139, 140, 138
307, 136, 139, 138
308, 138, 270, 137
309, 136, 138, 137
310, 253, 254, 252
311, 226, 253, 252
312, 136, 137, 135
313, 178, 265, 133
314, 226, 252, 242
315, 135, 178, 133
316, 134, 136, 135
317, 226, 242, 225
318, 134, 135, 133
319, 268, 299, 269
320, 299, 300, 269
321, 225, 261, 130
322, 131, 134, 133
323, 132, 226, 225
324, 131, 133, 132
325, 132, 225, 130
326, 292, 306, 172
327, 227, 306, 185
328, 307, 364, 98
329, 131, 132, 130
330, 195, 384, 301
331, 238, 382, 119
332, 121, 380, 302
333, 191, 379, 303
334, 185, 306, 292
335, 113, 262, 259
336, 8, 105, 9
337, 25, 100, 1
338, 16, 86, 17
339, 23, 97, 24
340, 21, 89, 22
341, 10, 111, 11
342, 14, 96, 15
343, 18, 87, 19
344, 6, 99, 7
345, 22, 199, 23
346, 12, 103, 13
347, 9, 207, 10
348, 20, 247, 21
349, 234, 346, 139
350, 48, 101, 47
351, 58, 112, 57
352, 60, 98, 59
353, 65, 107, 64
354, 53, 106, 52
355, 46, 115, 45
356, 55, 116, 54
357, 51, 95, 50
358, 62, 102, 61
359, 54, 308, 53
360, 47, 309, 46
361, 61, 307, 60
362, 324, 383, 190
363, 129, 131, 130
364, 326, 343, 116
365, 356, 373, 170
366, 60, 307, 98
367, 46, 309, 115
368, 53, 308, 106
369, 116, 308, 54
370, 102, 307, 61
371, 101, 309, 47
372, 95, 371, 251
373, 197, 337, 232
374, 28, 315, 27
375, 80, 313, 79
376, 84, 311, 83
377, 34, 88, 33
378, 73, 114, 72
379, 76, 312, 75
380, 78, 90, 77
381, 29, 110, 28
382, 31, 93, 30
383, 79, 314, 78
384, 81, 92, 80
385, 83, 109, 82
386, 35, 317, 34
387, 36, 318, 35
388, 37, 91, 36
389, 40, 94, 39
390, 42, 108, 41
391, 70, 113, 69
392, 75, 104, 74
393, 77, 316, 76
394, 68, 117, 67
395, 44, 118, 43
396, 202, 256, 97
397, 209, 210, 111
398, 134, 263, 136
399, 333, 341, 63
400, 262, 375, 350
401, 186, 323, 231
402, 297, 323, 296
403, 260, 362, 107
404, 320, 348, 126
405, 89, 200, 199
406, 105, 208, 207
407, 259, 319, 113
408, 247, 324, 201
409, 289, 325, 237
410, 264, 325, 187
411, 271, 331, 246
412, 192, 257, 234
413, 280, 332, 278
414, 279, 332, 298
415, 66, 328, 65
416, 57, 329, 56
417, 69, 319, 68
418, 129, 130, 128
419, 195, 351, 337
420, 251, 371, 106
421, 103, 193, 13
422, 97, 302, 24
423, 86, 303, 17
424, 127, 129, 128
425, 64, 333, 63
426, 99, 203, 7
427, 50, 334, 49
428, 72, 241, 71
429, 100, 119, 1
430, 87, 188, 19
431, 111, 301, 11
432, 200, 240, 202
433, 96, 212, 15
434, 208, 350, 211
435, 300, 322, 269
436, 334, 354, 49
437, 205, 381, 203
438, 110, 315, 28
439, 78, 314, 90
440, 35, 318, 317
441, 34, 317, 88
442, 313, 314, 79
443, 92, 313, 80
444, 91, 318, 36
445, 75, 312, 104
446, 76, 316, 312
447, 83, 311, 109
448, 90, 316, 77
449, 190, 383, 188
450, 286, 340, 216
451, 233, 373, 239
452, 280, 347, 109
453, 107, 362, 333
454, 136, 263, 139
455, 317, 331, 88
456, 68, 319, 117
457, 113, 319, 69
458, 329, 361, 118
459, 114, 241, 72
460, 296, 323, 186
461, 179, 374, 357
462, 98, 338, 59
463, 58, 338, 112
464, 124, 127, 126
465, 285, 353, 286
466, 39, 322, 38
467, 250, 344, 219
468, 223, 258, 123
469, 331, 344, 88
470, 94, 322, 39
471, 187, 325, 289
472, 139, 346, 140
473, 143, 346, 282
474, 224, 341, 333
475, 62, 341, 102
476, 128, 320, 126
477, 252, 361, 112
478, 125, 224, 223
479, 244, 358, 245
480, 264, 372, 110
481, 84, 327, 311
482, 315, 326, 27
483, 253, 355, 254
484, 73, 330, 114
485, 104, 330, 74
486, 274, 331, 271
487, 65, 328, 107
488, 112, 329, 57
489, 27, 326, 26
490, 85, 327, 84
491, 218, 340, 314
492, 242, 364, 225
493, 221, 378, 239
494, 228, 372, 264
495, 276, 387, 280
496, 278, 332, 279
497, 179, 356, 170
498, 74, 330, 73
499, 118, 336, 43
500, 42, 336, 108
501, 231, 354, 334
502, 308, 343, 248
503, 32, 349, 31
504, 48, 354, 101
505, 107, 333, 64
506, 95, 334, 50
507, 235, 324, 190
508, 70, 310, 113
509, 110, 345, 264
510, 195, 337, 197
511, 127, 128, 126
512, 106, 371, 52
513, 51, 371, 95
514, 298, 360, 297
515, 258, 259, 206
516, 314, 340, 90
517, 116, 343, 308
518, 37, 342, 91
519, 56, 366, 3
520, 5, 367, 66
521, 33, 363, 32
522, 67, 367, 5
523, 3, 366, 44
524, 356, 357, 222
525, 43, 336, 42
526, 59, 338, 58
527, 2, 370, 55
528, 45, 369, 4
529, 227, 339, 306
530, 241, 310, 71
531, 306, 339, 255
532, 26, 370, 2
533, 4, 369, 85
534, 238, 365, 204
535, 93, 345, 30
536, 29, 345, 110
537, 258, 260, 259
538, 216, 340, 218
539, 274, 344, 331
540, 81, 347, 92
541, 109, 347, 82
542, 285, 388, 353
543, 312, 335, 104
544, 310, 321, 211
545, 322, 342, 38
546, 105, 381, 350
547, 170, 373, 284
548, 262, 350, 205
549, 63, 341, 62
550, 71, 310, 70
551, 256, 352, 302
552, 210, 351, 301
553, 38, 342, 37
554, 110, 372, 315
555, 248, 343, 230
556, 192, 220, 190
557, 258, 365, 123
558, 300, 342, 322
559, 282, 374, 179
560, 206, 365, 258
561, 286, 353, 340
562, 304, 357, 257
563, 250, 363, 344
564, 127, 368, 129
565, 351, 359, 337
566, 346, 374, 282
567, 219, 344, 274
568, 259, 262, 206
569, 140, 346, 143
570, 220, 235, 190
571, 258, 362, 260
572, 30, 345, 29
573, 104, 389, 330
574, 241, 321, 310
575, 99, 382, 238
576, 103, 384, 195
577, 350, 381, 205
578, 100, 380, 121
579, 87, 379, 191
580, 341, 348, 102
581, 312, 388, 335
582, 82, 347, 81
583, 245, 358, 300
584, 266, 355, 253
585, 49, 354, 48
586, 232, 233, 198
587, 113, 375, 262
588, 102, 348, 320
589, 239, 356, 222
590, 254, 361, 252
591, 114, 359, 241
592, 342, 358, 91
593, 330, 389, 232
594, 329, 366, 56
595, 66, 367, 328
596, 31, 349, 93
597, 257, 374, 234
598, 225, 364, 261
599, 309, 360, 115
600, 256, 368, 127
601, 301, 351, 195
602, 302, 352, 121
603, 230, 372, 228
604, 55, 370, 116
605, 115, 369, 45
606, 52, 371, 51
607, 12, 384, 103
608, 20, 383, 247
609, 16, 385, 86
610, 18, 379, 87
611, 6, 382, 99
612, 8, 381, 105
613, 14, 376, 96
614, 25, 380, 100
615, 90, 353, 316
616, 340, 353, 90
617, 236, 387, 276
618, 196, 377, 193
619, 124, 126, 125
620, 222, 386, 212
621, 112, 361, 329
622, 337, 359, 114
623, 88, 363, 33
624, 223, 362, 258
625, 44, 366, 118
626, 117, 367, 67
627, 353, 388, 316
628, 103, 194, 193
629, 240, 368, 202
630, 86, 304, 303
631, 100, 120, 119
632, 87, 189, 188
633, 99, 204, 203
634, 96, 221, 212
635, 310, 375, 113
636, 328, 367, 117
637, 118, 366, 329
638, 99, 238, 204
639, 103, 195, 194
640, 100, 121, 120
641, 87, 191, 189
642, 200, 202, 199
643, 208, 209, 207
644, 89, 201, 200
645, 211, 375, 310
646, 224, 348, 341
647, 209, 321, 210
648, 344, 363, 88
649, 300, 358, 342
650, 234, 374, 346
651, 204, 365, 206
652, 192, 234, 220
653, 122, 123, 120
654, 316, 388, 312
655, 326, 370, 26
656, 85, 369, 327
657, 327, 369, 115
658, 116, 370, 326
659, 196, 378, 377
660, 335, 389, 104
661, 233, 389, 335
662, 105, 350, 208
663, 221, 222, 212
664, 189, 190, 188
665, 204, 205, 203
666, 194, 196, 193
667, 197, 232, 198
668, 121, 352, 124
669, 191, 257, 192
670, 121, 124, 122
671, 321, 359, 210
672, 124, 125, 122
673, 210, 359, 351
674, 197, 198, 196
675, 206, 262, 205
676, 239, 378, 198
677, 211, 321, 209
678, 123, 365, 238
679, 232, 389, 233
680, 191, 192, 189
681, 121, 122, 120
682, 198, 378, 196
683, 208, 211, 209
684, 201, 240, 200
685, 376, 377, 96
686, 385, 386, 86
687, 194, 197, 196
688, 204, 206, 205
689, 96, 377, 221
690, 86, 386, 304
691, 377, 378, 221
692, 179, 357, 356
693, 241, 359, 321
*NSET, NSET=LEFT
2, 55, 54, 53, 52, 51, 50, 49, 48, 47, 46, 45
4
*NSET, NSET=RIGHT
3, 56, 57, 58, 59, 60, 61, 62, 63, 64, 65, 66
5
*NSET, NSET=NALL
1, 2, 3, 4, 5, 6, 7, 8, 9, 10, 11, 12
13, 14, 15, 16, 17, 18, 19, 20, 21, 22, 23, 24
25, 26, 27, 28, 29, 30, 31, 32, 33, 34, 35, 36
37, 38, 39, 40, 41, 42, 43, 44, 45, 46, 47, 48
49, 50, 51, 52, 53, 54, 55, 56, 57, 58, 59, 60
61, 62, 63, 64, 65, 66, 67, 68, 69, 70, 71, 72
73, 74, 75, 76, 77, 78, 79, 80, 81, 82, 83, 84
85, 86, 87, 88, 89, 90, 91, 92, 93, 94, 95, 96
97, 98, 99, 100, 101, 102, 103, 104, 105, 106, 107, 108
109, 110, 111, 112, 113, 114, 115, 116, 117, 118, 119, 120
121, 122, 123, 124, 125, 126, 127, 128, 129, 130, 131, 132
133, 134, 135, 136, 137, 138, 139, 140, 141, 142, 143, 144
145, 146, 147, 148, 149, 150, 151, 152, 153, 154, 155, 156
157, 158, 159, 160, 161, 162, 163, 164, 165, 166, 167, 168
169, 170, 171, 172, 173, 174, 175, 176, 177, 178, 179, 180
181, 182, 183, 184, 185, 186, 187, 188, 189, 190, 191, 192
193, 194, 195, 196, 197, 198, 199, 200, 201, 202, 203, 204
205, 206, 207, 208, 209, 210, 211, 212, 213, 214, 215, 216
217, 218, 219, 220, 221, 222, 223, 224, 225, 226, 227, 228
229, 230, 231, 232, 233, 234, 235, 236, 237, 238, 239, 240
241, 242, 243, 244, 245, 246, 247, 248, 249, 250, 251, 252
253, 254, 255, 256, 257, 258, 259, 260, 261, 262, 263, 264
265, 266, 267, 268, 269, 270, 271, 272, 273, 274, 275, 276
277, 278, 279, 280, 281, 282, 283, 284, 285, 286, 287, 288
289, 290, 291, 292, 293, 294, 295, 296, 297, 298, 299, 300
301, 302, 303, 304, 305, 306, 307, 308, 309, 310, 311, 312
313, 314, 315, 316, 317, 318, 319, 320, 321, 322, 323, 324
325, 326, 327, 328, 329, 330, 331, 332, 333, 334, 335, 336
337, 338, 339, 340, 341, 342, 343, 344, 345, 346, 347, 348
349, 350, 351, 352, 353, 354, 355, 356, 357, 358, 359, 360
361, 362, 363, 364, 365, 366, 367, 368, 369, 370, 371, 372
373, 374, 375, 376, 377, 378, 379, 380, 381, 382, 383, 384
385, 386, 387, 388, 389
*MATERIAL, NAME=STEEL
*ELASTIC
210000.000, 0.300000
*SOLID SECTION, ELSET=EALL, MATERIAL=STEEL
7.540847
*STEP
*STATIC
*BOUNDARY
LEFT, 1, 1, 0.0
LEFT, 2, 2, 0.0
*CLOAD
3, 1, 24.269545
56, 1, 48.539089
57, 1, 48.539089
58, 1, 48.539089
59, 1, 48.539089
60, 1, 48.539089
61, 1, 48.539089
62, 1, 48.539089
63, 1, 48.539089
64, 1, 48.539089
65, 1, 48.539089
66, 1, 48.539089
5, 1, 24.269545
*NODE FILE
U
*EL FILE
S
*NODE PRINT, NSET=NALL
U
*EL PRINT, ELSET=EALL
S
*END STEP
