*HEADING
2D plate with hole - plate_002
*NODE
1, 117.822125, 28.080275, 0.0
2, 0.000000, 0.000000, 0.0
3, 137.214991, 0.000000, 0.0
4, 0.000000, 65.522885, 0.0
5, 137.214991, 65.522885, 0.0
6, 117.504903, 30.489813, 0.0
7, 116.574856, 32.735146, 0.0
8, 115.095364, 34.663256, 0.0
9, 113.167254, 36.142748, 0.0
10, 110.921921, 37.072795, 0.0
11, 108.512383, 37.390017, 0.0
12, 106.102844, 37.072795, 0.0
13, 103.857512, 36.142748, 0.0
14, 101.929401, 34.663256, 0.0
15, 100.449910, 32.735146, 0.0
16, 99.519863, 30.489813, 0.0
17, 99.202641, 28.080275, 0.0
18, 99.519863, 25.670736, 0.0
19, 100.449910, 23.425404, 0.0
20, 101.929401, 21.497293, 0.0
21, 103.857512, 20.017802, 0.0
22, 106.102844, 19.087755, 0.0
23, 108.512383, 18.770533, 0.0
24, 110.921921, 19.087755, 0.0
25, 113.167254, 20.017802, 0.0
26, 115.095364, 21.497293, 0.0
27, 116.574856, 23.425404, 0.0
28, 117.504903, 25.670736, 0.0
29, 7.623055, 0.000000, 0.0
30, 15.246110, 0.000000, 0.0
31, 22.869165, 0.000000, 0.0
32, 30.492220, 0.000000, 0.0
33, 38.115275, 0.000000, 0.0
34, 45.738330, 0.000000, 0.0
35, 53.361386, 0.000000, 0.0
36, 60.984441, 0.000000, 0.0
37, 68.607496, 0.000000, 0.0
38, 76.230551, 0.000000, 0.0
39, 83.853606, 0.000000, 0.0
40, 91.476661, 0.000000, 0.0
41, 99.099716, 0.000000, 0.0
42, 106.722771, 0.000000, 0.0
43, 114.345826, 0.000000, 0.0
44, 121.968881, 0.000000, 0.0
45, 129.591936, 0.000000, 0.0
46, 0.000000, 58.242564, 0.0
47, 0.000000, 50.962244, 0.0
48, 0.000000, 43.681923, 0.0
49, 0.000000, 36.401603, 0.0
50, 0.000000, 29.121282, 0.0
51, 0.000000, 21.840962, 0.0
52, 0.000000, 14.560641, 0.0
53, 0.000000, 7.280321, 0.0
54, 137.214991, 7.280321, 0.0
55, 137.214991, 14.560641, 0.0
56, 137.214991, 21.840962, 0.0
57, 137.214991, 29.121282, 0.0
58, 137.214991, 36.401603, 0.0
59, 137.214991, 43.681923, 0.0
60, 137.214991, 50.962244, 0.0
61, 137.214991, 58.242564, 0.0
62, 129.591936, 65.522885, 0.0
63, 121.968881, 65.522885, 0.0
64, 114.345826, 65.522885, 0.0
65, 106.722771, 65.522885, 0.0
66, 99.099716, 65.522885, 0.0
67, 91.476661, 65.522885, 0.0
68, 83.853606, 65.522885, 0.0
69, 76.230551, 65.522885, 0.0
70, 68.607496, 65.522885, 0.0
71, 60.984441, 65.522885, 0.0
72, 53.361386, 65.522885, 0.0
73, 45.738330, 65.522885, 0.0
74, 38.115275, 65.522885, 0.0
75, 30.492220, 65.522885, 0.0
76, 22.869165, 65.522885, 0.0
77, 15.246110, 65.522885, 0.0
78, 7.623055, 65.522885, 0.0
79, 97.286686, 29.244786, 0.0
80, 64.058912, 59.265982, 0.0
81, 99.502462, 34.947738, 0.0
82, 6.912461, 33.326557, 0.0
83, 42.207777, 59.117096, 0.0
84, 72.356204, 8.207318, 0.0
85, 98.040372, 23.742626, 0.0
86, 48.529377, 6.422563, 0.0
87, 112.813518, 38.560575, 0.0
88, 104.298977, 38.614593, 0.0
89, 87.610232, 59.219930, 0.0
90, 117.597249, 34.876678, 0.0
91, 117.575780, 21.445805, 0.0
92, 26.659210, 6.801051, 0.0
93, 101.959788, 18.946017, 0.0
94, 26.680693, 58.921125, 0.0
95, 120.098741, 26.701446, 0.0
96, 112.881680, 17.628180, 0.0
97, 130.044573, 47.003250, 0.0
98, 87.665133, 6.601759, 0.0
99, 110.463454, 58.857472, 0.0
100, 106.598619, 16.701717, 0.0
101, 6.794877, 47.211104, 0.0
102, 6.446441, 17.751746, 0.0
103, 129.570303, 18.408249, 0.0
104, 132.089413, 32.317077, 0.0
105, 116.814860, 6.911502, 0.0
106, 103.019206, 6.226482, 0.0
107, 125.804262, 59.474431, 0.0
108, 11.620983, 6.739796, 0.0
109, 11.790218, 59.085731, 0.0
110, 98.231905, 33.445349, 0.0
111, 96.781676, 35.366672, 0.0
112, 99.142969, 37.857288, 0.0
113, 95.270849, 37.832525, 0.0
114, 97.435841, 42.002620, 0.0
115, 92.833097, 34.427877, 0.0
116, 90.196201, 40.193951, 0.0
117, 86.203892, 34.007209, 0.0
118, 82.206853, 40.382413, 0.0
119, 78.523976, 33.427104, 0.0
120, 74.508205, 40.490278, 0.0
121, 70.677723, 33.286460, 0.0
122, 66.576290, 40.503642, 0.0
123, 62.645627, 33.532468, 0.0
124, 58.574162, 40.555542, 0.0
125, 54.557660, 33.642212, 0.0
126, 58.623785, 26.657965, 0.0
127, 50.540563, 26.731594, 0.0
128, 46.542774, 33.678273, 0.0
129, 42.524225, 26.762238, 0.0
130, 38.537577, 33.701716, 0.0
131, 34.520650, 26.783616, 0.0
132, 30.536122, 33.721545, 0.0
133, 26.519826, 26.802847, 0.0
134, 82.957508, 26.968677, 0.0
135, 34.552079, 40.640540, 0.0
136, 26.551831, 40.659308, 0.0
137, 38.504434, 19.846294, 0.0
138, 78.448022, 47.023631, 0.0
139, 54.524664, 19.944072, 0.0
140, 62.503399, 19.791443, 0.0
141, 92.273867, 46.189280, 0.0
142, 97.949468, 48.153123, 0.0
143, 90.321349, 28.871938, 0.0
144, 88.420593, 22.478411, 0.0
145, 80.439508, 19.738544, 0.0
146, 98.567633, 21.686634, 0.0
147, 96.166930, 21.827725, 0.0
148, 97.279264, 19.337562, 0.0
149, 114.912388, 18.139504, 0.0
150, 114.496421, 16.012550, 0.0
151, 112.103747, 14.827179, 0.0
152, 117.393395, 16.501638, 0.0
153, 118.984394, 23.742626, 0.0
154, 120.616144, 20.911842, 0.0
155, 121.896430, 23.686658, 0.0
156, 123.590823, 26.506508, 0.0
157, 118.945020, 32.452744, 0.0
158, 119.995542, 34.925672, 0.0
159, 119.009390, 37.474391, 0.0
160, 122.444702, 37.097829, 0.0
161, 120.725220, 41.100038, 0.0
162, 121.668782, 33.015764, 0.0
163, 104.074674, 17.653896, 0.0
164, 102.138287, 16.391536, 0.0
165, 104.228632, 14.646101, 0.0
166, 107.217032, 13.539834, 0.0
167, 97.402864, 26.579991, 0.0
168, 111.016111, 39.634897, 0.0
169, 112.377875, 41.056389, 0.0
170, 110.198344, 42.176231, 0.0
171, 112.811986, 44.360089, 0.0
172, 108.255447, 46.413259, 0.0
173, 106.707583, 39.182943, 0.0
174, 104.762720, 40.859430, 0.0
175, 30.567060, 47.250462, 0.0
176, 22.566900, 47.214418, 0.0
177, 18.562277, 40.608008, 0.0
178, 38.566959, 47.183879, 0.0
179, 59.320568, 13.289969, 0.0
180, 62.567918, 47.503960, 0.0
181, 54.570980, 47.211383, 0.0
182, 115.325386, 40.096909, 0.0
183, 113.179432, 50.330680, 0.0
184, 100.688728, 12.803085, 0.0
185, 75.369881, 26.227468, 0.0
186, 72.143886, 17.846199, 0.0
187, 126.377493, 23.835868, 0.0
188, 119.766800, 29.818956, 0.0
189, 95.354017, 24.805303, 0.0
190, 34.561395, 54.376668, 0.0
191, 14.808165, 47.190307, 0.0
192, 19.029725, 54.079236, 0.0
193, 125.942621, 41.019430, 0.0
194, 70.562653, 47.093704, 0.0
195, 75.264276, 53.223045, 0.0
196, 67.013115, 26.424248, 0.0
197, 50.560870, 40.541902, 0.0
198, 46.568990, 47.095157, 0.0
199, 50.175662, 54.014057, 0.0
200, 46.511786, 19.996031, 0.0
201, 43.408209, 13.146621, 0.0
202, 34.487411, 12.928158, 0.0
203, 30.504221, 20.014125, 0.0
204, 22.504017, 20.057702, 0.0
205, 18.804596, 27.014105, 0.0
206, 13.813304, 20.699466, 0.0
207, 18.585970, 12.858165, 0.0
208, 42.553308, 40.546459, 0.0
209, 22.585050, 33.760814, 0.0
210, 14.951536, 33.865090, 0.0
211, 115.168565, 12.813298, 0.0
212, 110.846369, 11.028853, 0.0
213, 120.389267, 12.442687, 0.0
214, 125.506077, 6.943297, 0.0
215, 122.827070, 16.885680, 0.0
216, 92.809504, 18.467719, 0.0
217, 96.278515, 14.768527, 0.0
218, 95.997737, 8.247617, 0.0
219, 11.121854, 40.373805, 0.0
220, 102.899436, 59.453540, 0.0
221, 64.559260, 6.693286, 0.0
222, 80.660328, 7.002309, 0.0
223, 56.118363, 59.588075, 0.0
224, 118.157354, 58.921125, 0.0
225, 122.392054, 51.778112, 0.0
226, 95.277070, 59.585678, 0.0
227, 102.070550, 37.879965, 0.0
228, 101.816228, 40.204837, 0.0
229, 103.186310, 44.015125, 0.0
230, 116.269723, 36.926311, 0.0
231, 109.336023, 16.170858, 0.0
232, 6.566858, 25.093631, 0.0
233, 94.751165, 27.838609, 0.0
234, 86.083616, 14.157933, 0.0
235, 79.816981, 59.456949, 0.0
236, 131.890211, 25.528908, 0.0
237, 5.953443, 54.602404, 0.0
238, 5.953443, 10.920481, 0.0
239, 131.261549, 54.602404, 0.0
240, 106.089044, 10.476366, 0.0
241, 94.723055, 30.969649, 0.0
242, 131.363366, 10.920481, 0.0
243, 82.960413, 53.095857, 0.0
244, 56.207412, 6.698032, 0.0
245, 18.996288, 5.279802, 0.0
246, 106.722771, 53.260061, 0.0
247, 66.176663, 13.165643, 0.0
248, 41.096033, 6.258476, 0.0
249, 34.170030, 5.197537, 0.0
250, 51.417002, 13.249548, 0.0
251, 26.548166, 14.531840, 0.0
252, 118.047703, 45.691264, 0.0
253, 91.475236, 52.813127, 0.0
254, 78.336708, 13.390461, 0.0
255, 109.895285, 5.442431, 0.0
256, 127.137523, 28.707823, 0.0
257, 126.220550, 34.391945, 0.0
258, 11.593926, 13.799139, 0.0
259, 72.083458, 59.815674, 0.0
260, 123.080537, 29.857074, 0.0
261, 85.714569, 46.556227, 0.0
262, 66.744957, 52.802782, 0.0
263, 124.257488, 20.745659, 0.0
264, 58.814381, 53.008334, 0.0
265, 131.902205, 39.579573, 0.0
266, 49.520304, 60.753000, 0.0
267, 42.416157, 52.357371, 0.0
268, 34.411472, 60.692132, 0.0
269, 26.681155, 52.368382, 0.0
270, 12.209751, 27.999770, 0.0
271, 19.057638, 60.679445, 0.0
272, 4.890401, 40.154074, 0.0
273, 123.550921, 45.650801, 0.0
274, 107.340973, 41.868648, 0.0
275, 99.527950, 17.614408, 0.0
276, 118.723191, 19.242355, 0.0
277, 91.766901, 12.448711, 0.0
278, 103.042742, 49.295677, 0.0
279, 96.259946, 32.956761, 0.0
280, 11.689554, 52.571162, 0.0
281, 92.401527, 25.510778, 0.0
282, 5.338023, 60.284367, 0.0
283, 131.876969, 60.284367, 0.0
284, 5.124789, 5.059662, 0.0
285, 131.882917, 5.232290, 0.0
286, 109.875793, 13.891681, 0.0
287, 97.786750, 31.528157, 0.0
288, 101.103122, 36.217995, 0.0
289, 116.127329, 20.026099, 0.0
290, 100.273848, 20.448039, 0.0
291, 110.960177, 17.297397, 0.0
292, 114.321226, 37.520322, 0.0
293, 108.972584, 39.361159, 0.0
294, 99.335127, 54.189563, 0.0
295, 126.312619, 13.104853, 0.0
296, 93.030514, 22.617987, 0.0
*ELEMENT, TYPE=CPS3, ELSET=EALL
1, 186, 196, 140
2, 95, 260, 188
3, 41, 218, 40
4, 186, 247, 84
5, 84, 254, 186
6, 40, 218, 98
7, 114, 116, 113
8, 227, 228, 112
9, 182, 230, 159
10, 183, 252, 225
11, 97, 239, 225
12, 185, 196, 186
13, 234, 277, 216
14, 144, 234, 216
15, 183, 225, 224
16, 92, 251, 207
17, 183, 224, 99
18, 207, 245, 92
19, 121, 185, 119
20, 140, 247, 186
21, 179, 250, 244
22, 225, 273, 97
23, 244, 250, 86
24, 240, 255, 212
25, 143, 241, 115
26, 202, 248, 201
27, 202, 249, 248
28, 45, 214, 44
29, 202, 251, 92
30, 206, 232, 102
31, 161, 182, 159
32, 211, 212, 105
33, 92, 249, 202
34, 153, 155, 95
35, 157, 188, 162
36, 163, 165, 100
37, 169, 182, 171
38, 166, 240, 212
39, 121, 196, 185
40, 103, 263, 215
41, 206, 270, 232
42, 162, 260, 257
43, 166, 231, 100
44, 91, 153, 27
45, 7, 157, 90
46, 18, 167, 85
47, 79, 167, 17
48, 12, 173, 88
49, 93, 163, 21
50, 95, 188, 1
51, 22, 163, 100
52, 28, 153, 95
53, 6, 188, 157
54, 98, 234, 222
55, 234, 254, 222
56, 83, 267, 199
57, 150, 211, 152
58, 187, 263, 103
59, 106, 218, 41
60, 259, 262, 195
61, 252, 273, 225
62, 225, 239, 107
63, 119, 185, 134
64, 210, 219, 82
65, 199, 266, 83
66, 86, 250, 201
67, 80, 262, 259
68, 184, 275, 217
69, 229, 274, 172
70, 25, 289, 26
71, 13, 288, 14
72, 15, 287, 16
73, 23, 291, 24
74, 8, 292, 9
75, 10, 293, 11
76, 19, 290, 20
77, 108, 245, 207
78, 126, 196, 123
79, 114, 229, 142
80, 201, 248, 86
81, 149, 289, 25
82, 110, 287, 15
83, 227, 288, 13
84, 230, 292, 8
85, 168, 293, 10
86, 231, 291, 23
87, 146, 290, 19
88, 156, 260, 95
89, 207, 258, 108
90, 84, 247, 221
91, 154, 276, 215
92, 114, 141, 116
93, 134, 143, 117
94, 138, 243, 195
95, 192, 269, 94
96, 140, 196, 126
97, 123, 196, 121
98, 212, 255, 105
99, 228, 229, 114
100, 218, 277, 98
101, 243, 261, 253
102, 221, 247, 179
103, 134, 144, 143
104, 94, 269, 190
105, 164, 275, 184
106, 174, 274, 229
107, 106, 255, 240
108, 101, 219, 191
109, 158, 162, 160
110, 94, 271, 192
111, 112, 228, 114
112, 45, 285, 214
113, 117, 143, 115
114, 122, 194, 180
115, 120, 194, 122
116, 195, 243, 235
117, 179, 244, 221
118, 178, 208, 198
119, 198, 208, 197
120, 125, 197, 128
121, 197, 208, 128
122, 124, 197, 125
123, 130, 208, 135
124, 135, 208, 178
125, 128, 208, 130
126, 137, 200, 129
127, 137, 201, 200
128, 129, 200, 127
129, 137, 202, 201
130, 133, 203, 131
131, 133, 204, 203
132, 131, 203, 137
133, 137, 203, 202
134, 133, 205, 204
135, 205, 206, 204
136, 206, 207, 204
137, 133, 209, 205
138, 176, 192, 191
139, 176, 191, 177
140, 178, 190, 175
141, 176, 177, 136
142, 175, 176, 136
143, 135, 178, 175
144, 135, 175, 136
145, 135, 136, 132
146, 130, 135, 132
147, 132, 133, 131
148, 130, 132, 131
149, 131, 137, 129
150, 132, 209, 133
151, 177, 209, 136
152, 130, 131, 129
153, 136, 209, 132
154, 177, 210, 209
155, 128, 130, 129
156, 139, 179, 140
157, 209, 210, 205
158, 127, 200, 139
159, 181, 199, 198
160, 128, 129, 127
161, 139, 140, 126
162, 127, 139, 126
163, 125, 128, 127
164, 181, 198, 197
165, 125, 127, 126
166, 181, 197, 124
167, 125, 126, 123
168, 180, 181, 124
169, 124, 125, 123
170, 122, 180, 124
171, 122, 124, 123
172, 138, 195, 194
173, 122, 123, 121
174, 120, 122, 121
175, 138, 194, 120
176, 118, 138, 120
177, 120, 121, 119
178, 253, 261, 141
179, 44, 214, 105
180, 185, 186, 145
181, 191, 219, 177
182, 190, 268, 94
183, 80, 264, 262
184, 177, 219, 210
185, 119, 134, 117
186, 118, 120, 119
187, 257, 260, 256
188, 24, 96, 25
189, 28, 95, 1
190, 12, 88, 13
191, 20, 93, 21
192, 11, 173, 12
193, 18, 85, 19
194, 1, 188, 6
195, 17, 167, 18
196, 9, 87, 10
197, 16, 79, 17
198, 21, 163, 22
199, 26, 91, 27
200, 7, 90, 8
201, 22, 100, 23
202, 6, 157, 7
203, 14, 81, 15
204, 27, 153, 28
205, 134, 185, 145
206, 103, 236, 187
207, 81, 110, 15
208, 100, 231, 23
209, 85, 146, 19
210, 90, 230, 8
211, 96, 149, 25
212, 88, 227, 13
213, 87, 168, 10
214, 144, 281, 143
215, 215, 276, 152
216, 99, 246, 183
217, 190, 267, 83
218, 63, 107, 62
219, 65, 99, 64
220, 66, 220, 65
221, 68, 89, 67
222, 71, 80, 70
223, 74, 83, 73
224, 76, 94, 75
225, 32, 92, 31
226, 38, 84, 37
227, 40, 98, 39
228, 37, 221, 36
229, 44, 105, 43
230, 30, 108, 29
231, 78, 109, 77
232, 72, 223, 71
233, 39, 222, 38
234, 35, 86, 34
235, 64, 224, 63
236, 67, 226, 66
237, 42, 106, 41
238, 223, 264, 80
239, 116, 261, 118
240, 219, 272, 82
241, 118, 119, 117
242, 224, 225, 107
243, 152, 289, 149
244, 170, 293, 168
245, 257, 265, 193
246, 148, 290, 146
247, 201, 250, 200
248, 139, 250, 179
249, 203, 251, 202
250, 207, 251, 204
251, 233, 241, 143
252, 179, 247, 140
253, 114, 142, 141
254, 165, 166, 100
255, 93, 164, 163
256, 173, 174, 88
257, 155, 156, 95
258, 91, 154, 153
259, 157, 158, 90
260, 104, 265, 257
261, 167, 189, 85
262, 141, 261, 116
263, 145, 234, 144
264, 79, 233, 167
265, 56, 103, 55
266, 58, 104, 57
267, 51, 232, 50
268, 60, 97, 59
269, 50, 82, 49
270, 52, 102, 51
271, 48, 101, 47
272, 99, 224, 64
273, 89, 226, 67
274, 98, 222, 39
275, 38, 222, 84
276, 63, 224, 107
277, 66, 226, 220
278, 71, 223, 80
279, 84, 221, 37
280, 65, 220, 99
281, 145, 254, 234
282, 171, 252, 183
283, 83, 268, 190
284, 195, 262, 194
285, 112, 288, 227
286, 182, 292, 230
287, 151, 291, 231
288, 222, 254, 84
289, 215, 295, 103
290, 167, 233, 189
291, 134, 145, 144
292, 181, 264, 199
293, 199, 267, 198
294, 178, 267, 190
295, 190, 269, 175
296, 176, 269, 192
297, 205, 270, 206
298, 199, 264, 223
299, 69, 235, 68
300, 88, 228, 227
301, 68, 235, 89
302, 159, 230, 90
303, 192, 271, 109
304, 221, 244, 36
305, 35, 244, 86
306, 92, 245, 31
307, 30, 245, 108
308, 82, 270, 210
309, 86, 248, 34
310, 32, 249, 92
311, 61, 239, 60
312, 47, 237, 46
313, 53, 238, 52
314, 200, 250, 139
315, 204, 251, 203
316, 79, 287, 241
317, 191, 280, 101
318, 102, 258, 206
319, 50, 232, 82
320, 102, 232, 51
321, 36, 244, 35
322, 31, 245, 30
323, 34, 248, 33
324, 33, 249, 32
325, 55, 242, 54
326, 161, 252, 182
327, 106, 240, 184
328, 188, 260, 162
329, 80, 259, 70
330, 243, 253, 89
331, 235, 243, 89
332, 223, 266, 199
333, 83, 266, 73
334, 72, 266, 223
335, 94, 268, 75
336, 74, 268, 83
337, 76, 271, 94
338, 109, 271, 77
339, 101, 237, 47
340, 52, 238, 102
341, 60, 239, 97
342, 4, 282, 78
343, 62, 283, 5
344, 29, 284, 2
345, 3, 285, 45
346, 217, 275, 148
347, 172, 274, 170
348, 184, 218, 106
349, 105, 255, 43
350, 42, 255, 106
351, 109, 280, 192
352, 103, 242, 55
353, 46, 282, 4
354, 5, 283, 61
355, 2, 284, 53
356, 54, 285, 3
357, 248, 249, 33
358, 182, 252, 171
359, 142, 253, 141
360, 212, 286, 166
361, 211, 213, 152
362, 217, 218, 184
363, 142, 294, 253
364, 69, 259, 235
365, 116, 118, 117
366, 186, 254, 145
367, 166, 286, 231
368, 105, 213, 211
369, 104, 236, 57
370, 56, 236, 103
371, 144, 296, 281
372, 101, 272, 219
373, 162, 257, 160
374, 105, 214, 213
375, 213, 215, 152
376, 256, 260, 156
377, 58, 265, 104
378, 97, 265, 59
379, 206, 258, 207
380, 82, 272, 49
381, 48, 272, 101
382, 232, 270, 82
383, 235, 259, 195
384, 194, 262, 180
385, 118, 261, 138
386, 160, 257, 193
387, 89, 253, 226
388, 192, 280, 191
389, 115, 279, 111
390, 173, 293, 274
391, 93, 290, 275
392, 57, 236, 56
393, 81, 288, 112
394, 262, 264, 180
395, 215, 263, 154
396, 87, 292, 182
397, 96, 291, 151
398, 101, 280, 237
399, 180, 264, 181
400, 220, 246, 99
401, 70, 259, 69
402, 274, 293, 170
403, 275, 290, 148
404, 198, 267, 178
405, 175, 269, 176
406, 210, 270, 205
407, 193, 265, 97
408, 276, 289, 152
409, 161, 273, 252
410, 246, 294, 278
411, 183, 246, 172
412, 73, 266, 72
413, 238, 258, 102
414, 75, 268, 74
415, 216, 296, 144
416, 77, 271, 76
417, 59, 265, 58
418, 241, 279, 115
419, 253, 294, 226
420, 108, 258, 238
421, 229, 278, 142
422, 43, 255, 42
423, 49, 272, 48
424, 220, 294, 246
425, 97, 273, 193
426, 87, 169, 168
427, 85, 147, 146
428, 96, 150, 149
429, 81, 111, 110
430, 214, 295, 213
431, 138, 261, 243
432, 157, 162, 158
433, 154, 155, 153
434, 174, 228, 88
435, 164, 165, 163
436, 79, 241, 233
437, 158, 159, 90
438, 213, 295, 215
439, 78, 282, 109
440, 108, 284, 29
441, 107, 283, 62
442, 241, 287, 279
443, 14, 288, 81
444, 24, 291, 96
445, 16, 287, 79
446, 20, 290, 93
447, 11, 293, 173
448, 9, 292, 87
449, 26, 289, 91
450, 81, 112, 111
451, 87, 182, 169
452, 96, 151, 150
453, 85, 189, 147
454, 116, 117, 115
455, 104, 256, 236
456, 231, 286, 151
457, 278, 294, 142
458, 214, 285, 242
459, 233, 281, 189
460, 98, 277, 234
461, 113, 115, 111
462, 226, 294, 220
463, 172, 278, 229
464, 143, 281, 233
465, 91, 289, 276
466, 165, 240, 166
467, 151, 286, 212
468, 150, 152, 149
469, 169, 170, 168
470, 147, 148, 146
471, 189, 296, 147
472, 103, 295, 242
473, 236, 256, 187
474, 112, 114, 113
475, 151, 212, 211
476, 187, 256, 156
477, 154, 263, 155
478, 237, 282, 46
479, 61, 283, 239
480, 53, 284, 238
481, 171, 183, 172
482, 160, 161, 159
483, 237, 280, 109
484, 242, 285, 54
485, 216, 217, 148
486, 171, 172, 170
487, 109, 282, 237
488, 238, 284, 108
489, 239, 283, 107
490, 160, 193, 161
491, 93, 275, 164
492, 173, 274, 174
493, 155, 187, 156
494, 246, 278, 172
495, 91, 276, 154
496, 112, 113, 111
497, 104, 257, 256
498, 151, 211, 150
499, 113, 116, 115
500, 164, 184, 165
501, 174, 229, 228
502, 158, 160, 159
503, 217, 277, 218
504, 147, 216, 148
505, 169, 171, 170
506, 193, 273, 161
507, 184, 240, 165
508, 155, 263, 187
509, 242, 295, 214
510, 147, 296, 216
511, 279, 287, 110
512, 111, 279, 110
513, 281, 296, 189
514, 216, 277, 217
*NSET, NSET=LEFT
2, 53, 52, 51, 50, 49, 48, 47, 46, 4
*NSET, NSET=RIGHT
3, 54, 55, 56, 57, 58, 59, 60, 61, 5
*NSET, NSET=NALL
1, 2, 3, 4, 5, 6, 7, 8, 9, 10, 11, 12
13, 14, 15, 16, 17, 18, 19, 20, 21, 22, 23, 24
25, 26, 27, 28, 29, 30, 31, 32, 33, 34, 35, 36
37, 38, 39, 40, 41, 42, 43, 44, 45, 46, 47, 48
49, 50, 51, 52, 53, 54, 55, 56, 57, 58, 59, 60
61, 62, 63, 64, 65, 66, 67, 68, 69, 70, 71, 72
73, 74, 75, 76, 77, 78, 79, 80, 81, 82, 83, 84
85, 86, 87, 88, 89, 90, 91, 92, 93, 94, 95, 96
97, 98, 99, 100, 101, 102, 103, 104, 105, 106, 107, 108
109, 110, 111, 112, 113, 114, 115, 116, 117, 118, 119, 120
121, 122, 123, 124, 125, 126, 127, 128, 129, 130, 131, 132
133, 134, 135, 136, 137, 138, 139, 140, 141, 142, 143, 144
145, 146, 147, 148, 149, 150, 151, 152, 153, 154, 155, 156
157, 158, 159, 160, 161, 162, 163, 164, 165, 166, 167, 168
169, 170, 171, 172, 173, 174, 175, 176, 177, 178, 179, 180
181, 182, 183, 184, 185, 186, 187, 188, 189, 190, 191, 192
193, 194, 195, 196, 197, 198, 199, 200, 201, 202, 203, 204
205, 206, 207, 208, 209, 210, 211, 212, 213, 214, 215, 216
217, 218, 219, 220, 221, 222, 223, 224, 225, 226, 227, 228
229, 230, 231, 232, 233, 234, 235, 236, 237, 238, 239, 240
241, 242, 243, 244, 245, 246, 247, 248, 249, 250, 251, 252
253, 254, 255, 256, 257, 258, 259, 260, 261, 262, 263, 264
265, 266, 267, 268, 269, 270, 271, 272, 273, 274, 275, 276
277, 278, 279, 280, 281, 282, 283, 284, 285, 286, 287, 288
289, 290, 291, 292, 293, 294, 295, 296
*MATERIAL, NAME=STEEL
*ELASTIC
210000.000, 0.300000
*SOLID SECTION, ELSET=EALL, MATERIAL=STEEL
5.303721
*STEP
*STATIC
*BOUNDARY
LEFT, 1, 1, 0.0
LEFT, 2, 2, 0.0
*CLOAD
3, 1, 65.372809
54, 1, 130.745618
55, 1, 130.745618
56, 1, 130.745618
57, 1, 130.745618
58, 1, 130.745618
59, 1, 130.745618
60, 1, 130.745618
61, 1, 130.745618
5, 1, 65.372809
*NODE FILE
U
*EL FILE
S
*NODE PRINT, NSET=NALL
U
*EL PRINT, ELSET=EALL
S
*END STEP
