*HEADING
2D plate with hole - plate_001
*NODE
1, 102.274308, 53.739121, 0.0
2, 0.000000, 0.000000, 0.0
3, 164.643790, 0.000000, 0.0
4, 0.000000, 86.923862, 0.0
5, 164.643790, 86.923862, 0.0
6, 102.067506, 56.168867, 0.0
7, 101.453050, 58.528714, 0.0
8, 100.448616, 60.750772, 0.0
9, 99.083100, 62.771118, 0.0
10, 97.395786, 64.531630, 0.0
11, 95.435214, 65.981662, 0.0
12, 93.257787, 67.079497, 0.0
13, 90.926145, 67.793555, 0.0
14, 88.507366, 68.103292, 0.0
15, 86.071032, 67.999797, 0.0
16, 83.687234, 67.486049, 0.0
17, 81.424548, 66.576828, 0.0
18, 79.348068, 65.298288, 0.0
19, 77.517530, 63.687213, 0.0
20, 75.985597, 61.789948, 0.0
21, 74.796338, 59.661077, 0.0
22, 73.983966, 57.361841, 0.0
23, 73.571852, 54.958387, 0.0
24, 73.571852, 52.519856, 0.0
25, 73.983966, 50.116401, 0.0
26, 74.796338, 47.817166, 0.0
27, 75.985597, 45.688294, 0.0
28, 77.517530, 43.791030, 0.0
29, 79.348068, 42.179954, 0.0
30, 81.424548, 40.901415, 0.0
31, 83.687234, 39.992193, 0.0
32, 86.071032, 39.478445, 0.0
33, 88.507366, 39.374951, 0.0
34, 90.926145, 39.684688, 0.0
35, 93.257787, 40.398745, 0.0
36, 95.435214, 41.496581, 0.0
37, 97.395786, 42.946612, 0.0
38, 99.083100, 44.707124, 0.0
39, 100.448616, 46.727470, 0.0
40, 101.453050, 48.949529, 0.0
41, 102.067506, 51.309375, 0.0
42, 7.840180, 0.000000, 0.0
43, 15.680361, 0.000000, 0.0
44, 23.520541, 0.000000, 0.0
45, 31.360722, 0.000000, 0.0
46, 39.200902, 0.000000, 0.0
47, 47.041083, 0.000000, 0.0
48, 54.881263, 0.000000, 0.0
49, 62.721444, 0.000000, 0.0
50, 70.561624, 0.000000, 0.0
51, 78.401805, 0.000000, 0.0
52, 86.241985, 0.000000, 0.0
53, 94.082166, 0.000000, 0.0
54, 101.922346, 0.000000, 0.0
55, 109.762527, 0.000000, 0.0
56, 117.602707, 0.000000, 0.0
57, 125.442887, 0.000000, 0.0
58, 133.283068, 0.000000, 0.0
59, 141.123248, 0.000000, 0.0
60, 148.963429, 0.000000, 0.0
61, 156.803609, 0.000000, 0.0
62, 0.000000, 79.021693, 0.0
63, 0.000000, 71.119523, 0.0
64, 0.000000, 63.217354, 0.0
65, 0.000000, 55.315185, 0.0
66, 0.000000, 47.413016, 0.0
67, 0.000000, 39.510846, 0.0
68, 0.000000, 31.608677, 0.0
69, 0.000000, 23.706508, 0.0
70, 0.000000, 15.804339, 0.0
71, 0.000000, 7.902169, 0.0
72, 164.643790, 7.902169, 0.0
73, 164.643790, 15.804339, 0.0
74, 164.643790, 23.706508, 0.0
75, 164.643790, 31.608677, 0.0
76, 164.643790, 39.510846, 0.0
77, 164.643790, 47.413016, 0.0
78, 164.643790, 55.315185, 0.0
79, 164.643790, 63.217354, 0.0
80, 164.643790, 71.119523, 0.0
81, 164.643790, 79.021693, 0.0
82, 156.803609, 86.923862, 0.0
83, 148.963429, 86.923862, 0.0
84, 141.123248, 86.923862, 0.0
85, 133.283068, 86.923862, 0.0
86, 125.442887, 86.923862, 0.0
87, 117.602707, 86.923862, 0.0
88, 109.762527, 86.923862, 0.0
89, 101.922346, 86.923862, 0.0
90, 94.082166, 86.923862, 0.0
91, 86.241985, 86.923862, 0.0
92, 78.401805, 86.923862, 0.0
93, 70.561624, 86.923862, 0.0
94, 62.721444, 86.923862, 0.0
95, 54.881263, 86.923862, 0.0
96, 47.041083, 86.923862, 0.0
97, 39.200902, 86.923862, 0.0
98, 31.360722, 86.923862, 0.0
99, 23.520541, 86.923862, 0.0
100, 15.680361, 86.923862, 0.0
101, 7.840180, 86.923862, 0.0
102, 71.717464, 51.051984, 0.0
103, 102.923879, 47.229233, 0.0
104, 104.320388, 55.180198, 0.0
105, 75.165766, 43.459220, 0.0
106, 6.503162, 43.529026, 0.0
107, 43.208538, 7.283804, 0.0
108, 97.594746, 40.474102, 0.0
109, 157.775125, 35.747680, 0.0
110, 78.969969, 39.791390, 0.0
111, 71.696456, 56.517015, 0.0
112, 84.434214, 37.670889, 0.0
113, 89.883287, 37.474354, 0.0
114, 103.011578, 60.329019, 0.0
115, 99.952821, 64.988066, 0.0
116, 73.611836, 61.972661, 0.0
117, 76.747985, 66.475956, 0.0
118, 42.189306, 80.447962, 0.0
119, 121.522797, 6.789795, 0.0
120, 129.346799, 79.466478, 0.0
121, 66.892435, 6.653724, 0.0
122, 97.982205, 6.655149, 0.0
123, 82.321895, 6.384680, 0.0
124, 157.800310, 59.266269, 0.0
125, 58.543956, 80.496154, 0.0
126, 6.771316, 59.397188, 0.0
127, 6.683725, 27.660136, 0.0
128, 27.592594, 79.712903, 0.0
129, 137.292939, 6.866867, 0.0
130, 27.257093, 6.501562, 0.0
131, 95.517030, 68.361010, 0.0
132, 114.218444, 79.066609, 0.0
133, 81.705305, 68.929927, 0.0
134, 90.140100, 70.039329, 0.0
135, 145.288951, 80.690464, 0.0
136, 157.739127, 19.973395, 0.0
137, 74.127144, 79.917432, 0.0
138, 98.515509, 79.607678, 0.0
139, 6.670300, 74.924660, 0.0
140, 7.134842, 11.726014, 0.0
141, 152.883519, 6.789795, 0.0
142, 156.789281, 74.734545, 0.0
143, 99.581686, 42.039275, 0.0
144, 100.125869, 39.446145, 0.0
145, 97.600418, 37.666336, 0.0
146, 100.171076, 36.473392, 0.0
147, 97.279996, 33.745413, 0.0
148, 101.937389, 32.743756, 0.0
149, 103.582309, 38.237665, 0.0
150, 108.059742, 33.333308, 0.0
151, 97.810394, 28.095869, 0.0
152, 109.425757, 40.833858, 0.0
153, 115.056541, 35.466831, 0.0
154, 116.777673, 43.018997, 0.0
155, 122.630816, 37.799270, 0.0
156, 124.260217, 45.734329, 0.0
157, 130.292760, 40.406991, 0.0
158, 131.860277, 48.260457, 0.0
159, 125.810843, 53.609014, 0.0
160, 133.410896, 56.115038, 0.0
161, 128.759797, 32.556150, 0.0
162, 113.371926, 27.480569, 0.0
163, 139.444228, 50.833096, 0.0
164, 136.331935, 35.125606, 0.0
165, 134.690868, 27.514014, 0.0
166, 127.386891, 61.379161, 0.0
167, 119.787795, 58.877447, 0.0
168, 140.988626, 58.685412, 0.0
169, 127.088376, 24.840174, 0.0
170, 142.334068, 29.885148, 0.0
171, 143.913109, 37.690897, 0.0
172, 140.197622, 20.859505, 0.0
173, 121.362455, 66.643362, 0.0
174, 113.818521, 63.803146, 0.0
175, 111.728239, 47.586858, 0.0
176, 113.787877, 56.884047, 0.0
177, 146.738380, 53.315645, 0.0
178, 101.812687, 43.394808, 0.0
179, 92.016818, 31.595034, 0.0
180, 91.883000, 24.885659, 0.0
181, 85.416974, 28.698086, 0.0
182, 85.401057, 21.421664, 0.0
183, 78.905368, 25.302280, 0.0
184, 98.199356, 20.396132, 0.0
185, 78.684456, 17.897066, 0.0
186, 71.954984, 21.947155, 0.0
187, 72.711173, 29.905504, 0.0
188, 65.441054, 26.588321, 0.0
189, 66.194523, 34.545274, 0.0
190, 58.923565, 31.227805, 0.0
191, 59.729051, 39.073584, 0.0
192, 52.410208, 35.842262, 0.0
193, 53.220842, 43.690094, 0.0
194, 45.894877, 40.473462, 0.0
195, 46.653997, 48.436090, 0.0
196, 39.365437, 45.137618, 0.0
197, 38.608668, 37.169497, 0.0
198, 40.126215, 53.097155, 0.0
199, 53.918124, 51.787377, 0.0
200, 32.848174, 49.775943, 0.0
201, 33.606973, 57.739759, 0.0
202, 51.706328, 27.816051, 0.0
203, 40.656627, 60.981061, 0.0
204, 26.330265, 54.415666, 0.0
205, 25.571553, 46.451663, 0.0
206, 27.089046, 62.379519, 0.0
207, 19.209173, 51.076045, 0.0
208, 66.953344, 42.509199, 0.0
209, 64.667983, 18.793055, 0.0
210, 18.411897, 43.115788, 0.0
211, 24.832218, 38.485981, 0.0
212, 17.682757, 35.149035, 0.0
213, 24.081645, 30.521283, 0.0
214, 94.451340, 35.951057, 0.0
215, 128.871304, 69.428309, 0.0
216, 79.534679, 32.246003, 0.0
217, 103.852874, 57.930331, 0.0
218, 105.379629, 59.647324, 0.0
219, 104.790513, 62.894958, 0.0
220, 104.226579, 52.353618, 0.0
221, 87.173255, 37.328764, 0.0
222, 75.010986, 64.040998, 0.0
223, 72.404083, 64.450132, 0.0
224, 70.831327, 61.877237, 0.0
225, 69.423943, 64.456301, 0.0
226, 71.197752, 67.809425, 0.0
227, 66.825318, 60.859849, 0.0
228, 64.996354, 66.867637, 0.0
229, 67.150176, 72.290285, 0.0
230, 60.919549, 61.770508, 0.0
231, 63.633667, 56.894966, 0.0
232, 57.527990, 68.219368, 0.0
233, 53.550193, 61.118334, 0.0
234, 50.034650, 69.298787, 0.0
235, 101.873391, 62.758153, 0.0
236, 102.255419, 65.248223, 0.0
237, 100.680102, 67.630634, 0.0
238, 104.715115, 67.582205, 0.0
239, 101.847563, 71.004384, 0.0
240, 107.550105, 73.059922, 0.0
241, 71.536147, 53.749926, 0.0
242, 69.320945, 52.358205, 0.0
243, 69.469012, 49.506711, 0.0
244, 66.358737, 50.390883, 0.0
245, 69.424346, 55.357366, 0.0
246, 61.289790, 46.488328, 0.0
247, 87.545042, 70.369013, 0.0
248, 89.214276, 72.612612, 0.0
249, 86.449794, 72.818811, 0.0
250, 92.256596, 72.112140, 0.0
251, 88.354579, 76.275143, 0.0
252, 84.671675, 75.967557, 0.0
253, 79.395294, 67.913452, 0.0
254, 79.529683, 70.780082, 0.0
255, 77.318280, 69.648189, 0.0
256, 82.368124, 71.323013, 0.0
257, 80.027940, 73.450025, 0.0
258, 76.955142, 41.498783, 0.0
259, 74.303582, 40.992680, 0.0
260, 76.219576, 38.862610, 0.0
261, 73.721606, 38.071472, 0.0
262, 103.704241, 49.668133, 0.0
263, 73.630262, 45.673076, 0.0
264, 72.216110, 43.179295, 0.0
265, 70.447868, 45.594730, 0.0
266, 81.551993, 38.545891, 0.0
267, 79.013676, 36.853994, 0.0
268, 72.370081, 59.535480, 0.0
269, 69.895418, 58.502446, 0.0
270, 98.070435, 66.898994, 0.0
271, 16.955726, 27.183638, 0.0
272, 23.329550, 22.556975, 0.0
273, 30.575371, 25.884519, 0.0
274, 16.228433, 19.222437, 0.0
275, 30.056870, 18.254264, 0.0
276, 37.130506, 21.301303, 0.0
277, 149.678158, 23.337454, 0.0
278, 146.583637, 16.624145, 0.0
279, 85.326421, 35.247608, 0.0
280, 82.374133, 35.955738, 0.0
281, 88.757548, 34.964116, 0.0
282, 106.583577, 53.830813, 0.0
283, 106.173468, 50.605338, 0.0
284, 105.477298, 47.703059, 0.0
285, 103.910733, 45.259959, 0.0
286, 106.302994, 56.995590, 0.0
287, 117.926582, 51.074258, 0.0
288, 149.842645, 61.352373, 0.0
289, 142.535976, 66.531532, 0.0
290, 150.106538, 69.117377, 0.0
291, 72.286631, 73.516559, 0.0
292, 36.542471, 13.498438, 0.0
293, 43.793128, 16.239532, 0.0
294, 50.938227, 11.558014, 0.0
295, 72.225291, 48.224027, 0.0
296, 98.379924, 69.706669, 0.0
297, 95.510466, 71.112524, 0.0
298, 122.102827, 74.578666, 0.0
299, 136.041428, 73.654080, 0.0
300, 85.045457, 70.690445, 0.0
301, 51.228061, 19.427139, 0.0
302, 121.104193, 29.967452, 0.0
303, 119.392361, 22.135688, 0.0
304, 111.665133, 19.876508, 0.0
305, 126.084396, 16.266656, 0.0
306, 105.201473, 25.799951, 0.0
307, 117.178315, 13.970484, 0.0
308, 109.256153, 13.016500, 0.0
309, 129.601132, 8.315921, 0.0
310, 134.504451, 14.168035, 0.0
311, 57.637106, 14.586308, 0.0
312, 108.825170, 59.964392, 0.0
313, 92.934687, 69.416343, 0.0
314, 94.717257, 75.161004, 0.0
315, 71.238616, 13.685880, 0.0
316, 95.174977, 39.001546, 0.0
317, 145.468912, 45.569715, 0.0
318, 152.197983, 48.331857, 0.0
319, 83.564148, 33.111853, 0.0
320, 137.885204, 42.981127, 0.0
321, 134.872520, 64.298922, 0.0
322, 150.486935, 32.436694, 0.0
323, 44.471712, 24.421398, 0.0
324, 115.344952, 71.885933, 0.0
325, 46.950705, 56.551508, 0.0
326, 45.156625, 32.488735, 0.0
327, 32.092734, 41.811584, 0.0
328, 34.327681, 65.690312, 0.0
329, 27.672954, 70.574396, 0.0
330, 20.607317, 67.049975, 0.0
331, 35.977570, 74.159619, 0.0
332, 42.220568, 68.030232, 0.0
333, 20.029456, 59.039876, 0.0
334, 31.339765, 33.847101, 0.0
335, 23.282297, 13.730832, 0.0
336, 15.164853, 11.556815, 0.0
337, 37.847954, 29.209741, 0.0
338, 20.905853, 74.979595, 0.0
339, 13.671685, 71.205641, 0.0
340, 6.443717, 35.593315, 0.0
341, 6.843479, 19.755423, 0.0
342, 6.843479, 67.168439, 0.0
343, 157.671219, 66.986085, 0.0
344, 6.569058, 51.496056, 0.0
345, 157.494487, 27.801735, 0.0
346, 58.186279, 23.293794, 0.0
347, 98.653950, 73.232469, 0.0
348, 92.265922, 79.071423, 0.0
349, 151.343172, 40.461920, 0.0
350, 74.636363, 6.347450, 0.0
351, 90.158734, 6.687650, 0.0
352, 94.256595, 13.260316, 0.0
353, 50.510780, 80.586306, 0.0
354, 58.231227, 7.168500, 0.0
355, 105.828953, 80.173642, 0.0
356, 66.652576, 79.195116, 0.0
357, 145.047234, 6.615825, 0.0
358, 109.007277, 51.613457, 0.0
359, 12.892812, 79.647890, 0.0
360, 101.817187, 12.985301, 0.0
361, 13.532371, 63.253506, 0.0
362, 85.768541, 13.707683, 0.0
363, 158.630164, 12.011146, 0.0
364, 152.610655, 80.939814, 0.0
365, 92.677151, 38.022056, 0.0
366, 91.557229, 35.601324, 0.0
367, 67.305682, 46.708563, 0.0
368, 113.642236, 6.274902, 0.0
369, 13.194120, 55.417676, 0.0
370, 34.971709, 6.326761, 0.0
371, 158.169715, 43.982184, 0.0
372, 104.681518, 42.379678, 0.0
373, 35.264219, 81.633641, 0.0
374, 108.617955, 64.626792, 0.0
375, 80.398723, 77.831453, 0.0
376, 107.220153, 45.373802, 0.0
377, 105.762441, 6.323371, 0.0
378, 19.894666, 6.280353, 0.0
379, 12.766176, 47.462836, 0.0
380, 137.614968, 80.697811, 0.0
381, 121.742733, 81.391895, 0.0
382, 74.616418, 69.445426, 0.0
383, 75.394082, 35.224911, 0.0
384, 143.094242, 73.700777, 0.0
385, 158.405703, 52.013136, 0.0
386, 11.810511, 5.635192, 0.0
387, 53.887040, 74.510142, 0.0
388, 66.271619, 53.974509, 0.0
389, 70.743773, 38.918998, 0.0
390, 12.310096, 39.419549, 0.0
391, 132.618069, 20.786693, 0.0
392, 20.118432, 81.637622, 0.0
393, 86.686224, 32.625598, 0.0
394, 58.749307, 56.627868, 0.0
395, 61.709673, 52.372321, 0.0
396, 46.682549, 63.195985, 0.0
397, 11.981152, 31.513534, 0.0
398, 102.667139, 75.872627, 0.0
399, 50.961173, 5.021507, 0.0
400, 45.599525, 74.251849, 0.0
401, 141.478558, 12.171102, 0.0
402, 86.345265, 81.416737, 0.0
403, 63.586937, 12.359949, 0.0
404, 61.378932, 73.796795, 0.0
405, 105.227860, 18.414878, 0.0
406, 101.956814, 41.099514, 0.0
407, 71.558872, 35.014043, 0.0
408, 152.946238, 55.244993, 0.0
409, 149.577933, 75.836595, 0.0
410, 152.814451, 15.627978, 0.0
411, 5.778782, 81.128667, 0.0
412, 158.865008, 81.128667, 0.0
413, 11.652402, 23.523251, 0.0
414, 158.915034, 5.745562, 0.0
415, 112.612261, 52.308970, 0.0
416, 5.673883, 5.691120, 0.0
417, 67.210074, 57.117827, 0.0
418, 78.401805, 11.360417, 0.0
419, 30.480091, 11.960380, 0.0
420, 91.155246, 18.941985, 0.0
421, 91.361726, 75.046464, 0.0
422, 73.995445, 66.444387, 0.0
423, 70.108402, 47.526161, 0.0
424, 84.203585, 72.990957, 0.0
425, 148.104894, 11.466684, 0.0
426, 110.275366, 68.390931, 0.0
427, 11.221896, 15.804339, 0.0
428, 109.519859, 55.266212, 0.0
429, 76.455469, 73.129674, 0.0
430, 83.707368, 69.281440, 0.0
431, 101.635803, 45.463719, 0.0
432, 107.921287, 48.576503, 0.0
433, 82.482875, 74.154960, 0.0
*ELEMENT, TYPE=CPS3, ELSET=EALL
1, 181, 319, 216
2, 305, 307, 119
3, 215, 299, 120
4, 240, 324, 132
5, 299, 321, 289
6, 124, 343, 288
7, 267, 280, 266
8, 136, 345, 277
9, 145, 316, 214
10, 147, 214, 179
11, 132, 355, 240
12, 58, 309, 57
13, 255, 429, 382
14, 119, 309, 305
15, 120, 298, 215
16, 264, 265, 208
17, 219, 374, 238
18, 288, 343, 290
19, 132, 324, 298
20, 250, 313, 297
21, 331, 400, 118
22, 298, 381, 132
23, 329, 331, 128
24, 189, 389, 208
25, 179, 366, 281
26, 277, 410, 136
27, 215, 321, 299
28, 253, 255, 117
29, 214, 366, 179
30, 231, 417, 227
31, 281, 366, 113
32, 282, 286, 104
33, 233, 325, 199
34, 9, 235, 115
35, 22, 268, 111
36, 11, 270, 131
37, 31, 266, 112
38, 7, 217, 114
39, 18, 253, 117
40, 20, 222, 116
41, 13, 313, 134
42, 107, 293, 292
43, 281, 393, 179
44, 277, 345, 322
45, 199, 394, 233
46, 237, 296, 270
47, 332, 400, 331
48, 107, 294, 293
49, 224, 269, 268
50, 219, 236, 235
51, 129, 309, 58
52, 57, 309, 119
53, 175, 376, 152
54, 310, 401, 172
55, 118, 373, 331
56, 172, 401, 278
57, 216, 280, 267
58, 289, 384, 299
59, 218, 312, 219
60, 375, 402, 92
61, 162, 304, 303
62, 134, 313, 250
63, 92, 402, 91
64, 128, 338, 329
65, 285, 431, 178
66, 331, 373, 128
67, 246, 367, 244
68, 154, 287, 175
69, 270, 296, 131
70, 222, 223, 116
71, 217, 218, 114
72, 235, 236, 115
73, 290, 343, 142
74, 309, 310, 305
75, 268, 269, 111
76, 266, 280, 112
77, 150, 306, 162
78, 294, 354, 311
79, 104, 286, 217
80, 117, 422, 222
81, 208, 389, 264
82, 287, 415, 175
83, 189, 208, 191
84, 181, 216, 183
85, 148, 306, 150
86, 142, 409, 290
87, 162, 303, 302
88, 243, 295, 102
89, 258, 260, 110
90, 263, 295, 265
91, 389, 407, 261
92, 221, 281, 113
93, 322, 345, 109
94, 77, 385, 371
95, 303, 307, 305
96, 278, 410, 277
97, 174, 312, 176
98, 101, 359, 100
99, 247, 300, 15
100, 143, 178, 38
101, 137, 356, 291
102, 255, 382, 117
103, 154, 175, 152
104, 110, 267, 266
105, 314, 347, 138
106, 380, 384, 135
107, 316, 365, 214
108, 226, 228, 225
109, 174, 176, 167
110, 294, 399, 354
111, 152, 376, 372
112, 152, 372, 149
113, 335, 378, 130
114, 239, 296, 237
115, 338, 359, 339
116, 19, 222, 20
117, 17, 253, 18
118, 6, 217, 7
119, 37, 143, 38
120, 30, 266, 31
121, 12, 313, 13
122, 14, 247, 15
123, 10, 270, 11
124, 8, 235, 9
125, 21, 268, 22
126, 155, 302, 161
127, 227, 269, 224
128, 299, 384, 380
129, 189, 407, 389
130, 202, 323, 301
131, 292, 370, 107
132, 291, 356, 229
133, 310, 391, 305
134, 161, 302, 169
135, 156, 287, 154
136, 111, 269, 245
137, 112, 280, 279
138, 148, 149, 146
139, 353, 400, 387
140, 1, 220, 104
141, 35, 365, 316
142, 33, 221, 113
143, 27, 263, 105
144, 111, 241, 23
145, 29, 258, 110
146, 26, 295, 263
147, 102, 295, 25
148, 105, 258, 28
149, 113, 365, 34
150, 36, 316, 108
151, 103, 262, 40
152, 24, 241, 102
153, 112, 221, 32
154, 41, 262, 220
155, 209, 346, 311
156, 145, 214, 147
157, 307, 368, 119
158, 183, 216, 187
159, 240, 426, 324
160, 108, 316, 145
161, 311, 346, 301
162, 294, 301, 293
163, 301, 323, 293
164, 193, 246, 199
165, 374, 426, 238
166, 91, 402, 90
167, 371, 385, 318
168, 216, 383, 187
169, 162, 306, 304
170, 304, 307, 303
171, 172, 391, 310
172, 288, 408, 124
173, 241, 245, 242
174, 226, 382, 291
175, 208, 246, 191
176, 262, 284, 283
177, 105, 264, 259
178, 159, 287, 156
179, 90, 402, 348
180, 130, 419, 335
181, 109, 349, 322
182, 301, 346, 202
183, 302, 303, 169
184, 101, 411, 359
185, 139, 342, 339
186, 185, 362, 182
187, 176, 287, 167
188, 184, 306, 151
189, 153, 302, 155
190, 387, 400, 234
191, 178, 372, 285
192, 129, 310, 309
193, 121, 350, 315
194, 122, 377, 360
195, 220, 283, 282
196, 342, 361, 339
197, 263, 264, 105
198, 241, 242, 102
199, 111, 245, 241
200, 112, 279, 221
201, 262, 283, 220
202, 103, 284, 262
203, 113, 366, 365
204, 105, 259, 258
205, 294, 311, 301
206, 300, 430, 15
207, 178, 431, 38
208, 15, 430, 16
209, 38, 431, 39
210, 260, 267, 110
211, 304, 308, 307
212, 179, 393, 181
213, 303, 305, 169
214, 317, 320, 171
215, 308, 368, 307
216, 186, 315, 185
217, 171, 320, 164
218, 299, 380, 120
219, 164, 320, 157
220, 163, 320, 317
221, 158, 320, 163
222, 289, 321, 168
223, 168, 321, 160
224, 170, 322, 171
225, 166, 321, 215
226, 202, 326, 323
227, 192, 326, 202
228, 173, 324, 174
229, 197, 337, 326
230, 326, 337, 323
231, 197, 326, 194
232, 198, 325, 203
233, 195, 325, 198
234, 213, 334, 211
235, 211, 334, 327
236, 273, 334, 213
237, 327, 334, 197
238, 196, 327, 197
239, 334, 337, 197
240, 211, 327, 205
241, 205, 327, 200
242, 204, 333, 207
243, 328, 329, 206
244, 328, 332, 331
245, 206, 333, 204
246, 201, 328, 206
247, 328, 331, 329
248, 329, 330, 206
249, 330, 333, 206
250, 292, 293, 276
251, 293, 323, 276
252, 275, 292, 276
253, 271, 274, 272
254, 275, 276, 273
255, 272, 275, 273
256, 271, 272, 213
257, 272, 273, 213
258, 274, 335, 272
259, 272, 335, 275
260, 274, 336, 335
261, 212, 271, 213
262, 212, 213, 211
263, 210, 212, 211
264, 210, 211, 205
265, 207, 210, 205
266, 203, 332, 328
267, 204, 207, 205
268, 203, 328, 201
269, 201, 206, 204
270, 204, 205, 200
271, 201, 204, 200
272, 198, 203, 201
273, 200, 327, 196
274, 198, 201, 200
275, 198, 200, 196
276, 273, 337, 334
277, 276, 337, 273
278, 199, 325, 195
279, 196, 197, 194
280, 195, 198, 196
281, 323, 337, 276
282, 298, 324, 173
283, 288, 290, 289
284, 193, 199, 195
285, 195, 196, 194
286, 215, 298, 173
287, 317, 318, 177
288, 288, 289, 168
289, 194, 326, 192
290, 193, 195, 194
291, 277, 322, 170
292, 177, 288, 168
293, 166, 215, 173
294, 173, 174, 167
295, 172, 278, 277
296, 163, 317, 177
297, 193, 194, 192
298, 163, 177, 168
299, 172, 277, 170
300, 166, 173, 167
301, 191, 193, 192
302, 192, 202, 190
303, 165, 172, 170
304, 163, 168, 160
305, 170, 171, 164
306, 160, 321, 166
307, 166, 167, 159
308, 191, 192, 190
309, 161, 169, 165
310, 158, 163, 160
311, 160, 166, 159
312, 165, 170, 164
313, 189, 191, 190
314, 161, 165, 164
315, 158, 160, 159
316, 209, 315, 186
317, 189, 190, 188
318, 220, 282, 104
319, 228, 404, 232
320, 161, 164, 157
321, 158, 159, 156
322, 157, 320, 158
323, 188, 209, 186
324, 187, 189, 188
325, 157, 158, 156
326, 155, 161, 157
327, 187, 188, 186
328, 329, 338, 330
329, 322, 349, 171
330, 338, 339, 330
331, 317, 349, 318
332, 155, 157, 156
333, 183, 187, 186
334, 188, 346, 209
335, 202, 346, 190
336, 352, 360, 184
337, 171, 349, 317
338, 190, 346, 188
339, 63, 139, 62
340, 75, 345, 74
341, 80, 343, 79
342, 74, 136, 73
343, 76, 109, 75
344, 79, 124, 78
345, 65, 126, 64
346, 71, 140, 70
347, 64, 342, 63
348, 67, 106, 66
349, 69, 127, 68
350, 70, 341, 69
351, 68, 340, 67
352, 66, 344, 65
353, 81, 142, 80
354, 155, 156, 154
355, 183, 186, 185
356, 147, 179, 151
357, 338, 392, 359
358, 84, 135, 83
359, 86, 120, 85
360, 90, 138, 89
361, 95, 125, 94
362, 99, 128, 98
363, 51, 350, 50
364, 88, 132, 87
365, 93, 137, 92
366, 97, 118, 96
367, 47, 107, 46
368, 52, 123, 51
369, 57, 119, 56
370, 59, 129, 58
371, 61, 141, 60
372, 45, 130, 44
373, 50, 121, 49
374, 53, 351, 52
375, 96, 353, 95
376, 49, 354, 48
377, 89, 355, 88
378, 94, 356, 93
379, 54, 122, 53
380, 60, 357, 59
381, 237, 270, 115
382, 232, 234, 233
383, 336, 378, 335
384, 79, 343, 124
385, 74, 345, 136
386, 109, 345, 75
387, 126, 342, 64
388, 69, 341, 127
389, 127, 340, 68
390, 65, 344, 126
391, 140, 341, 70
392, 67, 340, 106
393, 63, 342, 139
394, 106, 344, 66
395, 142, 343, 80
396, 297, 313, 131
397, 13, 134, 14
398, 34, 365, 35
399, 29, 110, 30
400, 31, 112, 32
401, 23, 241, 24
402, 11, 131, 12
403, 18, 117, 19
404, 32, 221, 33
405, 41, 220, 1
406, 16, 133, 17
407, 22, 111, 23
408, 7, 114, 8
409, 24, 102, 25
410, 26, 263, 27
411, 1, 104, 6
412, 27, 105, 28
413, 9, 115, 10
414, 33, 113, 34
415, 28, 258, 29
416, 40, 262, 41
417, 25, 295, 26
418, 20, 116, 21
419, 39, 103, 40
420, 35, 316, 36
421, 36, 108, 37
422, 224, 268, 116
423, 378, 386, 43
424, 162, 302, 153
425, 363, 410, 141
426, 219, 235, 114
427, 122, 352, 351
428, 410, 425, 141
429, 131, 313, 12
430, 116, 268, 21
431, 134, 247, 14
432, 117, 222, 19
433, 110, 266, 30
434, 104, 217, 6
435, 133, 253, 17
436, 115, 270, 10
437, 114, 235, 8
438, 108, 143, 37
439, 126, 361, 342
440, 339, 361, 330
441, 123, 350, 51
442, 138, 355, 89
443, 88, 355, 132
444, 93, 356, 137
445, 95, 353, 125
446, 122, 351, 53
447, 121, 354, 49
448, 52, 351, 123
449, 125, 356, 94
450, 118, 353, 96
451, 50, 350, 121
452, 141, 357, 60
453, 59, 357, 129
454, 120, 381, 298
455, 360, 377, 308
456, 230, 231, 227
457, 339, 359, 139
458, 382, 422, 117
459, 208, 367, 246
460, 256, 430, 300
461, 249, 300, 247
462, 167, 287, 159
463, 151, 306, 148
464, 227, 417, 269
465, 126, 369, 361
466, 73, 363, 72
467, 290, 384, 289
468, 229, 404, 228
469, 185, 418, 362
470, 83, 364, 82
471, 140, 386, 336
472, 297, 314, 250
473, 352, 362, 351
474, 153, 155, 154
475, 191, 246, 193
476, 183, 185, 182
477, 122, 360, 352
478, 243, 423, 295
479, 330, 361, 333
480, 295, 423, 265
481, 364, 409, 142
482, 181, 183, 182
483, 107, 399, 294
484, 232, 233, 230
485, 187, 407, 189
486, 153, 154, 152
487, 77, 371, 76
488, 44, 378, 43
489, 143, 406, 178
490, 119, 368, 56
491, 107, 370, 46
492, 45, 370, 130
493, 351, 362, 123
494, 267, 383, 216
495, 150, 162, 153
496, 179, 181, 180
497, 128, 373, 98
498, 97, 373, 118
499, 315, 403, 121
500, 361, 369, 333
501, 78, 385, 77
502, 165, 391, 172
503, 375, 429, 257
504, 54, 377, 122
505, 344, 369, 126
506, 136, 363, 73
507, 336, 386, 378
508, 382, 429, 291
509, 135, 364, 83
510, 84, 380, 135
511, 120, 380, 85
512, 86, 381, 120
513, 132, 381, 87
514, 344, 379, 369
515, 335, 419, 275
516, 62, 411, 4
517, 5, 412, 81
518, 4, 411, 101
519, 82, 412, 5
520, 246, 395, 199
521, 103, 431, 285
522, 226, 229, 228
523, 254, 429, 255
524, 333, 369, 207
525, 76, 371, 109
526, 56, 368, 55
527, 72, 414, 3
528, 3, 414, 61
529, 109, 371, 349
530, 305, 391, 169
531, 349, 371, 318
532, 46, 370, 45
533, 286, 428, 312
534, 128, 392, 338
535, 332, 396, 234
536, 244, 395, 246
537, 47, 399, 107
538, 354, 399, 48
539, 99, 392, 128
540, 2, 416, 71
541, 42, 416, 2
542, 296, 297, 131
543, 236, 237, 115
544, 98, 373, 97
545, 118, 400, 353
546, 223, 224, 116
547, 218, 219, 114
548, 150, 152, 149
549, 369, 379, 207
550, 148, 150, 149
551, 133, 254, 253
552, 134, 248, 247
553, 233, 396, 325
554, 108, 144, 143
555, 368, 377, 55
556, 356, 404, 229
557, 125, 404, 356
558, 282, 428, 286
559, 291, 429, 137
560, 55, 377, 54
561, 209, 403, 315
562, 106, 379, 344
563, 304, 405, 308
564, 242, 243, 102
565, 176, 415, 287
566, 181, 182, 180
567, 263, 265, 264
568, 259, 260, 258
569, 308, 377, 368
570, 106, 390, 379
571, 233, 394, 230
572, 103, 285, 284
573, 279, 281, 221
574, 207, 379, 210
575, 108, 145, 144
576, 130, 378, 44
577, 137, 375, 92
578, 325, 396, 203
579, 133, 256, 254
580, 134, 250, 248
581, 296, 347, 297
582, 312, 374, 219
583, 138, 348, 314
584, 362, 418, 123
585, 174, 374, 312
586, 180, 184, 151
587, 217, 286, 218
588, 137, 429, 375
589, 315, 418, 185
590, 234, 400, 332
591, 355, 398, 240
592, 85, 380, 84
593, 184, 420, 352
594, 87, 381, 86
595, 184, 405, 306
596, 226, 291, 229
597, 203, 396, 332
598, 379, 390, 210
599, 359, 411, 139
600, 216, 319, 280
601, 133, 430, 256
602, 308, 405, 360
603, 350, 418, 315
604, 232, 387, 234
605, 336, 427, 140
606, 124, 385, 78
607, 360, 405, 184
608, 238, 426, 240
609, 177, 408, 288
610, 150, 153, 152
611, 179, 180, 151
612, 43, 386, 42
613, 365, 366, 214
614, 290, 409, 384
615, 340, 390, 106
616, 210, 390, 212
617, 354, 403, 311
618, 90, 348, 138
619, 100, 392, 99
620, 367, 423, 243
621, 318, 408, 177
622, 370, 419, 130
623, 265, 423, 367
624, 169, 391, 165
625, 340, 397, 390
626, 121, 403, 354
627, 300, 424, 256
628, 359, 392, 100
629, 254, 255, 253
630, 248, 249, 247
631, 297, 347, 314
632, 353, 387, 125
633, 390, 397, 212
634, 401, 425, 278
635, 251, 402, 252
636, 244, 367, 243
637, 352, 420, 362
638, 228, 232, 230
639, 265, 367, 208
640, 269, 417, 245
641, 280, 319, 279
642, 311, 403, 209
643, 234, 396, 233
644, 239, 347, 296
645, 212, 397, 271
646, 129, 401, 310
647, 180, 420, 184
648, 178, 406, 372
649, 362, 420, 182
650, 306, 405, 304
651, 127, 397, 340
652, 48, 399, 47
653, 348, 421, 314
654, 127, 413, 397
655, 264, 389, 259
656, 245, 388, 242
657, 250, 421, 248
658, 251, 421, 348
659, 397, 413, 271
660, 363, 414, 72
661, 252, 402, 375
662, 283, 358, 282
663, 223, 422, 226
664, 140, 416, 386
665, 271, 413, 274
666, 292, 419, 370
667, 364, 412, 82
668, 357, 401, 129
669, 284, 432, 283
670, 347, 398, 138
671, 71, 416, 140
672, 81, 412, 142
673, 139, 411, 62
674, 341, 413, 127
675, 275, 419, 292
676, 274, 427, 336
677, 181, 393, 319
678, 61, 414, 141
679, 324, 426, 174
680, 413, 427, 274
681, 357, 425, 401
682, 341, 427, 413
683, 388, 395, 244
684, 348, 402, 251
685, 140, 427, 341
686, 415, 428, 358
687, 123, 418, 350
688, 199, 395, 394
689, 312, 428, 176
690, 257, 429, 254
691, 141, 425, 357
692, 16, 430, 133
693, 39, 431, 103
694, 252, 424, 249
695, 141, 414, 363
696, 149, 406, 144
697, 385, 408, 318
698, 222, 422, 223
699, 138, 398, 355
700, 230, 394, 231
701, 144, 406, 143
702, 257, 433, 375
703, 142, 412, 364
704, 136, 410, 363
705, 135, 409, 364
706, 249, 424, 300
707, 223, 226, 225
708, 182, 420, 180
709, 232, 404, 387
710, 228, 230, 227
711, 146, 149, 144
712, 260, 383, 267
713, 384, 409, 135
714, 283, 432, 358
715, 375, 433, 252
716, 245, 417, 388
717, 387, 404, 125
718, 124, 408, 385
719, 147, 151, 148
720, 145, 147, 146
721, 383, 407, 187
722, 231, 395, 388
723, 145, 146, 144
724, 256, 257, 254
725, 279, 393, 281
726, 223, 225, 224
727, 285, 376, 284
728, 236, 238, 237
729, 242, 244, 243
730, 259, 261, 260
731, 386, 416, 42
732, 238, 239, 237
733, 225, 227, 224
734, 358, 428, 282
735, 286, 312, 218
736, 251, 252, 249
737, 248, 251, 249
738, 394, 395, 231
739, 248, 421, 251
740, 372, 406, 149
741, 358, 432, 175
742, 278, 425, 410
743, 239, 398, 347
744, 176, 428, 415
745, 314, 421, 250
746, 147, 148, 146
747, 238, 240, 239
748, 225, 228, 227
749, 174, 426, 374
750, 175, 415, 358
751, 240, 398, 239
752, 261, 407, 383
753, 319, 393, 279
754, 259, 389, 261
755, 242, 388, 244
756, 261, 383, 260
757, 376, 432, 284
758, 252, 433, 424
759, 226, 422, 382
760, 175, 432, 376
761, 424, 433, 256
762, 388, 417, 231
763, 256, 433, 257
764, 219, 238, 236
765, 372, 376, 285
*NSET, NSET=LEFT
2, 71, 70, 69, 68, 67, 66, 65, 64, 63, 62, 4
*NSET, NSET=RIGHT
3, 72, 73, 74, 75, 76, 77, 78, 79, 80, 81, 5
*NSET, NSET=NALL
1, 2, 3, 4, 5, 6, 7, 8, 9, 10, 11, 12
13, 14, 15, 16, 17, 18, 19, 20, 21, 22, 23, 24
25, 26, 27, 28, 29, 30, 31, 32, 33, 34, 35, 36
37, 38, 39, 40, 41, 42, 43, 44, 45, 46, 47, 48
49, 50, 51, 52, 53, 54, 55, 56, 57, 58, 59, 60
61, 62, 63, 64, 65, 66, 67, 68, 69, 70, 71, 72
73, 74, 75, 76, 77, 78, 79, 80, 81, 82, 83, 84
85, 86, 87, 88, 89, 90, 91, 92, 93, 94, 95, 96
97, 98, 99, 100, 101, 102, 103, 104, 105, 106, 107, 108
109, 110, 111, 112, 113, 114, 115, 116, 117, 118, 119, 120
121, 122, 123, 124, 125, 126, 127, 128, 129, 130, 131, 132
133, 134, 135, 136, 137, 138, 139, 140, 141, 142, 143, 144
145, 146, 147, 148, 149, 150, 151, 152, 153, 154, 155, 156
157, 158, 159, 160, 161, 162, 163, 164, 165, 166, 167, 168
169, 170, 171, 172, 173, 174, 175, 176, 177, 178, 179, 180
181, 182, 183, 184, 185, 186, 187, 188, 189, 190, 191, 192
193, 194, 195, 196, 197, 198, 199, 200, 201, 202, 203, 204
205, 206, 207, 208, 209, 210, 211, 212, 213, 214, 215, 216
217, 218, 219, 220, 221, 222, 223, 224, 225, 226, 227, 228
229, 230, 231, 232, 233, 234, 235, 236, 237, 238, 239, 240
241, 242, 243, 244, 245, 246, 247, 248, 249, 250, 251, 252
253, 254, 255, 256, 257, 258, 259, 260, 261, 262, 263, 264
265, 266, 267, 268, 269, 270, 271, 272, 273, 274, 275, 276
277, 278, 279, 280, 281, 282, 283, 284, 285, 286, 287, 288
289, 290, 291, 292, 293, 294, 295, 296, 297, 298, 299, 300
301, 302, 303, 304, 305, 306, 307, 308, 309, 310, 311, 312
313, 314, 315, 316, 317, 318, 319, 320, 321, 322, 323, 324
325, 326, 327, 328, 329, 330, 331, 332, 333, 334, 335, 336
337, 338, 339, 340, 341, 342, 343, 344, 345, 346, 347, 348
349, 350, 351, 352, 353, 354, 355, 356, 357, 358, 359, 360
361, 362, 363, 364, 365, 366, 367, 368, 369, 370, 371, 372
373, 374, 375, 376, 377, 378, 379, 380, 381, 382, 383, 384
385, 386, 387, 388, 389, 390, 391, 392, 393, 394, 395, 396
397, 398, 399, 400, 401, 402, 403, 404, 405, 406, 407, 408
409, 410, 411, 412, 413, 414, 415, 416, 417, 418, 419, 420
421, 422, 423, 424, 425, 426, 427, 428, 429, 430, 431, 432
433
*MATERIAL, NAME=STEEL
*ELASTIC
210000.000, 0.300000
*SOLID SECTION, ELSET=EALL, MATERIAL=STEEL
6.334280
*STEP
*STATIC
*BOUNDARY
LEFT, 1, 1, 0.0
LEFT, 2, 2, 0.0
*CLOAD
3, 1, 60.517829
72, 1, 121.035658
73, 1, 121.035658
74, 1, 121.035658
75, 1, 121.035658
76, 1, 121.035658
77, 1, 121.035658
78, 1, 121.035658
79, 1, 121.035658
80, 1, 121.035658
81, 1, 121.035658
5, 1, 60.517829
*NODE FILE
U
*EL FILE
S
*NODE PRINT, NSET=NALL
U
*EL PRINT, ELSET=EALL
S
*END STEP
